####################################################################### 
# 
# This file contains crystal structure data downloaded from the 
# Cambridge Structural Database (CSD) hosted by the Cambridge 
# Crystallographic Data Centre (CCDC).
# 
# Full information about CCDC data access policies and citation 
# guidelines are available at http://www.ccdc.cam.ac.uk/access/V1 
# 
# Audit and citation data items may have been added by the CCDC. 
# Please retain this information to preserve the provenance of 
# this file and to allow appropriate attribution of the data. 
# 
#######################################################################

data_ZOWTOU
#This CIF has been generated from an entry in the Cambridge Structural Database
_database_code_depnum_ccdc_archive 'CCDC 1315586'
_database_code_CSD               ZOWTOU
loop_
_citation_id
_citation_doi
_citation_year
1 10.1524/zkri.1996.211.1.48 1996
_audit_creation_method           'Created from the CSD'
_audit_update_record             
;
2022-09-11 downloaded from the CCDC.
;
_database_code_depnum_ccdc_fiz   'CSD 402164'
_database_code_NBS               665818
_chemical_formula_moiety         'C2 H8 N1 1+,I3 Sn1 1-'
_chemical_name_systematic        'Dimethylammonium tri-iodo-tin(ii)'
_chemical_absolute_configuration unk
_diffrn_ambient_temperature      295
_exptl_crystal_density_diffrn    3.399
#These two values have been output from a single CSD field.
_refine_ls_R_factor_gt           0.0297
_refine_ls_wR_factor_gt          0.0297
_diffrn_radiation_probe          x-ray
_symmetry_cell_setting           orthorhombic
_symmetry_space_group_name_H-M   'P n a 21'
_symmetry_Int_Tables_number      33
_space_group_name_Hall           'P 2c -2n'
loop_
_symmetry_equiv_pos_site_id
_symmetry_equiv_pos_as_xyz
1 x,y,z
2 -x,-y,1/2+z
3 1/2-x,1/2+y,1/2+z
4 1/2+x,1/2-y,z
_cell_length_a                   14.637(3)
_cell_length_b                   8.786(2)
_cell_length_c                   8.288(2)
_cell_angle_alpha                90
_cell_angle_beta                 90
_cell_angle_gamma                90
_cell_volume                     1065.84
_exptl_crystal_colour            yellow
_cell_formula_units_Z            4
loop_
_atom_site_label
_atom_site_type_symbol
_atom_site_fract_x
_atom_site_fract_y
_atom_site_fract_z
Sn1 Sn 0.5000(2) 0.00260(8) 0.0000
I1 I 0.5891(2) 0.2397(3) -0.203(1)
I2 I 0.33402(6) -0.0013(5) -0.2429(9)
I3 I 0.4117(2) 0.2401(3) 0.205(1)
C1 C 0.657(4) 0.470(5) 0.368(6)
C2 C 0.658(3) 0.567(4) 0.107(3)
N1 N 0.673(2) 0.429(3) 0.200(3)
H1 H 0.61(1) 0.41(3) 0.41(1)
H2 H 0.64(2) 0.58(1) 0.375(8)
H3 H 0.711(8) 0.45(3) 0.43(1)
H4 H 0.66(1) 0.542(4) -0.006(4)
H5 H 0.706(6) 0.638(8) 0.13(1)
H6 H 0.601(5) 0.61(1) 0.14(1)
H7 H 0.730(2) 0.395(3) 0.186(3)
H8 H 0.633(2) 0.356(3) 0.169(3)

#END
