####################################################################### 
# 
# This file contains crystal structure data downloaded from the 
# Cambridge Structural Database (CSD) hosted by the Cambridge 
# Crystallographic Data Centre (CCDC).
# 
# Full information about CCDC data access policies and citation 
# guidelines are available at http://www.ccdc.cam.ac.uk/access/V1 
# 
# Audit and citation data items may have been added by the CCDC. 
# Please retain this information to preserve the provenance of 
# this file and to allow appropriate attribution of the data. 
# 
#######################################################################

data_2b.EASnI3-293K
_audit_block_doi                 10.5517/ccdc.csd.cc1ncdzd
_database_code_depnum_ccdc_archive 'CCDC 1530314'
loop_
_citation_id
_citation_doi
_citation_year
1 10.1021/acs.inorgchem.6b02764 2017
_audit_update_record             
;
2017-01-30 deposited with the CCDC.	2022-09-05 downloaded from the CCDC.
;
#=======================================================================

# 5. CHEMICAL DATA

_chemical_name_systematic        
; ?
;
_chemical_name_common            'Ethylammonium Tin Iodide'
_chemical_formula_moiety         (CH3CH2NH3)SnI3
_chemical_formula_structural     ?
_chemical_formula_analytical     ?
_chemical_formula_iupac          ?
_chemical_formula_sum            'C2 H8 I3 N1 Sn1'
_chemical_formula_weight         545.50
_chemical_melting_point          ?
_chemical_compound_source        ?
_chemical_absolute_configuration ?

#=======================================================================

# 6. CRYSTAL DATA

_symmetry_cell_setting           hexagonal
_symmetry_space_group_name_H-M   'P 63 m c'
_symmetry_space_group_name_Hall  'P 6c;-2c'
_symmetry_Int_Tables_number      186

loop_
_space_group_symop_id
_space_group_symop_operation_xyz
1 x,y,z
2 -y,x-y,z
3 -x+y,-x,z
4 -x,-y,z+1/2
5 y,-x+y,z+1/2
6 x-y,x,z+1/2
7 -y,-x,z
8 -x+y,y,z
9 x,x-y,z
10 y,x,z+1/2
11 x-y,-y,z+1/2
12 -x,-x+y,z+1/2

_cell_length_a                   8.9660(7)
_cell_length_b                   8.9660(7)
_cell_length_c                   23.079(2)
_cell_angle_alpha                90
_cell_angle_beta                 90
_cell_angle_gamma                120
_cell_volume                     1606.7(2)

loop_
_twin_individual_id
_twin_individual_mass_fraction_refined
_twin_individual_twin_matrix_11
_twin_individual_twin_matrix_12
_twin_individual_twin_matrix_13
_twin_individual_twin_matrix_21
_twin_individual_twin_matrix_22
_twin_individual_twin_matrix_23
_twin_individual_twin_matrix_31
_twin_individual_twin_matrix_32
_twin_individual_twin_matrix_33
1 0.4(8) 1 0 0 0 1 0 0 0 1
2 0.6(8) -1 0 0 0 -1 0 0 0 -1

_cell_formula_units_Z            6

_cell_measurement_reflns_used    3944
_cell_measurement_theta_min      1.76
_cell_measurement_theta_max      23.29
_cell_measurement_temperature    293
_cell_special_details            
; ?
;

_exptl_crystal_density_diffrn    3.3327
_exptl_crystal_density_meas      ?
_exptl_crystal_density_method    ?
_exptl_crystal_F_000             1368

_exptl_absorpt_coefficient_mu    10.957
_exptl_crystal_description       'hexagonal needle'
_exptl_crystal_size_max          0.0511
_exptl_crystal_size_mid          0.0145
_exptl_crystal_size_min          0.0018
_exptl_crystal_size_rad          ?
_exptl_crystal_colour            'Dark red'
_exptl_absorpt_correction_type   integration
_exptl_absorpt_correction_T_min  0.4841
_exptl_absorpt_correction_T_max  0.9622
_exptl_absorpt_process_details   X-SHAPE
loop_
_exptl_crystal_face_index_h
_exptl_crystal_face_index_k
_exptl_crystal_face_index_l
_exptl_crystal_face_perp_dist
? ? ? ?

#=======================================================================

# 7. EXPERIMENTAL DATA

_exptl_special_details           ?

_diffrn_ambient_temperature      293
_diffrn_measurement_device       '2-circle goniometer'
_diffrn_measurement_device_type  'STOE IPDS 2'
_diffrn_detector                 'image plate (34 cm diameter)'
_diffrn_detector_type            STOE
_diffrn_detector_area_resol_mean 6.67
_diffrn_source                   
'sealed X-ray tube, 12 x 0.4 mm long-fine focus'
_diffrn_source_voltage           50
_diffrn_source_current           40
_diffrn_source_power             1.20
_diffrn_radiation_type           'Mo K\a'
_diffrn_radiation_wavelength     0.71073
_diffrn_radiation_monochromator  'plane graphite'
_diffrn_radiation_polarisn_norm  0
_diffrn_radiation_collimation    '0.5 mm diameter, monocapillary'
_diffrn_measurement_method       'rotation method'
_diffrn_measurement_details      
; 180 frames, detector distance = 100 mm
;


_diffrn_reflns_number            14725
_diffrn_reflns_theta_min         1.76
_diffrn_reflns_theta_max         25.24
_diffrn_reflns_theta_full        29.24
_diffrn_measured_fraction_theta_max 0.99
_diffrn_measured_fraction_theta_full 0.99
_diffrn_reflns_av_R_equivalents  0.0748
_diffrn_reflns_av_unetI/netI     0.0359
_diffrn_reflns_limit_h_min       -11
_diffrn_reflns_limit_h_max       10
_diffrn_reflns_limit_k_min       -11
_diffrn_reflns_limit_k_max       12
_diffrn_reflns_limit_l_min       -31
_diffrn_reflns_limit_l_max       31
_diffrn_reflns_reduction_process ?

_diffrn_standards_number         ?
_diffrn_standards_interval_count ?
_diffrn_standards_interval_time  ?
_diffrn_standards_decay_%        ?
loop_
_diffrn_standard_refln_index_h
_diffrn_standard_refln_index_k
_diffrn_standard_refln_index_l
? ? ?

_diffrn_radiation_probe          X-ray

#=======================================================================

# 8. REFINEMENT DATA

_refine_special_details          
; Carbon and Nitrogen atoms were refined isotropically due to the 
  heavily disordered nature of the cations. The C-C and the C-N
  bond distances and the C-C-N bond angles were restrained to
  1.500(1) Angstrom and 108.00(1) degrees, respectively. The thermal
  parameters of the EA molecules were restrained so that each cation
  has the same Uiso.
;

_reflns_number_total             1188
_reflns_number_gt                937
_reflns_threshold_expression     I>2\s(I)

_refine_ls_structure_factor_coef Fsqd
_refine_ls_R_factor_gt           0.0876
_refine_ls_wR_factor_gt          0.0965
_refine_ls_R_factor_all          0.1080
_refine_ls_wR_factor_ref         0.1000
_refine_ls_goodness_of_fit_ref   1.82
_refine_ls_goodness_of_fit_gt    1.99
_refine_ls_restrained_S_gt       ?
_refine_ls_restrained_S_all      ?
_refine_ls_number_reflns         1188
_refine_ls_number_parameters     44
_refine_ls_number_restraints     9
_refine_ls_number_constraints    7
_refine_ls_weighting_scheme      sigma
_refine_ls_weighting_details     w=1/(\s^2^(I)+0.0004I^2^)
_refine_ls_hydrogen_treatment    constr
_refine_ls_shift/su_max          0.0398
_refine_ls_shift/su_mean         0.0074
_refine_diff_density_max         4.23
_refine_diff_density_min         -2.40
_refine_ls_extinction_method     none
_refine_ls_extinction_coef       ?
_refine_ls_abs_structure_details 
;  578 of Friedel pairs used in the refinement
;
_refine_ls_abs_structure_Flack   0.6(8)
_refine_ls_abs_structure_Rogers  ?

loop_
_atom_type_symbol
_atom_type_scat_dispersion_real
_atom_type_scat_dispersion_imag
_atom_type_scat_source
C 0.0033 0.0016 'International Tables Vol C tables 4.2.6.8 and 6.1.1.1'
H 0.0000 0.0000 'International Tables Vol C tables 4.2.6.8 and 6.1.1.1'
I -0.4742 1.8119 'International Tables Vol C tables 4.2.6.8 and 6.1.1.1'
N 0.0061 0.0033 'International Tables Vol C tables 4.2.6.8 and 6.1.1.1'
Sn -0.6537 1.4246 'International Tables Vol C tables 4.2.6.8 and 6.1.1.1'

_computing_data_collection       'STOE X-AREA'
_computing_cell_refinement       'STOE X-AREA'
_computing_data_reduction        'STOE X-RED'
_computing_structure_solution    Superflip
_computing_structure_refinement  Jana2006
_computing_molecular_graphics    ?
_computing_publication_material  ?

loop_
_restr_distance_atom_site_label_1
_restr_distance_site_symmetry_1
_restr_distance_atom_site_label_2
_restr_distance_site_symmetry_2
_restr_distance_target
_restr_distance_target_weight_param
N1 . C2 1_565 1.5 0.001
C2 1_565 C1 1_565 1.5 0.001
N2 . C4 . 1.5 0.001
C3 . C4 . 1.5 0.001
N3 . C6 . 1.5 0.001
C5 . C6 . 1.5 0.001

loop_
_restr_angle_atom_site_label_1
_restr_angle_site_symmetry_1
_restr_angle_atom_site_label_2
_restr_angle_site_symmetry_2
_restr_angle_atom_site_label_3
_restr_angle_site_symmetry_3
_restr_angle_target
_restr_angle_target_weight_param
N1 . C2 1_565 C1 1_565 108 0.01
N2 . C4 . C3 . 108 0.01
N3 . C6 . C5 . 108 0.01

loop_
_restr_torsion_atom_site_label_1
_restr_torsion_site_symmetry_1
_restr_torsion_atom_site_label_2
_restr_torsion_site_symmetry_2
_restr_torsion_atom_site_label_3
_restr_torsion_site_symmetry_3
_restr_torsion_atom_site_label_4
_restr_torsion_site_symmetry_4
_restr_torsion_angle_target
_restr_torsion_weight_param
? ? ? ? ? ? ? ? ? ?

loop_
_restr_equal_distance_atom_site_label_1
_restr_equal_distance_site_symmetry_1
_restr_equal_distance_atom_site_label_2
_restr_equal_distance_site_symmetry_2
_restr_equal_distance_class_class_id
_restr_equal_distance_class_target_weight_param
? ? ? ? ? ?

loop_
_restr_equal_angle_atom_site_label_1
_restr_equal_angle_site_symmetry_1
_restr_equal_angle_atom_site_label_2
_restr_equal_angle_site_symmetry_2
_restr_equal_angle_atom_site_label_3
_restr_equal_angle_site_symmetry_3
_restr_equal_angle_class_class_id
_restr_equal_angle_class_target_weight_param
? ? ? ? ? ? ? ?

loop_
_restr_equal_torsion_atom_site_label_1
_restr_equal_torsion_site_symmetry_1
_restr_equal_torsion_atom_site_label_2
_restr_equal_torsion_site_symmetry_2
_restr_equal_torsion_atom_site_label_3
_restr_equal_torsion_site_symmetry_3
_restr_equal_torsion_atom_site_label_4
_restr_equal_torsion_site_symmetry_4
_restr_equal_torsion_class_class_id
_restr_equal_torsion_class_target_weight_param
? ? ? ? ? ? ? ? ? ?


#=======================================================================

# 9. ATOMIC COORDINATES AND DISPLACEMENT PARAMETERS

loop_
_atom_site_label
_atom_site_type_symbol
_atom_site_fract_x
_atom_site_fract_y
_atom_site_fract_z
_atom_site_adp_type
_atom_site_U_iso_or_equiv
_atom_site_site_symmetry_multiplicity
_atom_site_occupancy
_atom_site_calc_flag
_atom_site_refinement_flags
_atom_site_disorder_assembly
_atom_site_disorder_group
Sn1 Sn 0 0 -0.0042(3) Uani 0.0543(8) 2 1 d . . .
Sn2 Sn 0.333333 0.666667 0.6595(2) Uani 0.076(2) 2 1 d . . .
Sn3 Sn 0.333333 0.666667 0.83318(17) Uani 0.0419(12) 2 1 d . . .
I1 I 0.51091(12) 0.48910(12) 0.2484(2) Uani 0.1059(11) 6 1 d . . .
I2 I 0.8351(4) 0.1649(4) 0.07639(19) Uani 0.109(3) 6 1 d . . .
I3 I 0.8320(5) 0.1680(5) 0.4170(2) Uani 0.114(3) 6 1 d . . .
C1 C 0 0 0.307(7) Uiso 0.23(3) 2 1 d . . .
C2 C 0.05677(3) -0.05677(3) 0.255(7) Uiso 0.23(3) 6 0.3333 d . . .
N1 N 0 1 0.202(7) Uiso 0.23(3) 2 1 d . . .
C3 C 0.333333 0.666667 0.145(7) Uiso 0.31(7) 2 1 d . . .
C4 C 0.21979(6) 0.60989(3) 0.093(7) Uiso 0.31(7) 6 0.3333 d . . .
N2 N 0.333333 0.666667 0.040(7) Uiso 0.31(7) 2 1 d . . .
C5 C 0.333333 0.666667 0.476(6) Uiso 0.27(6) 2 1 d . . .
C6 C 0.21979(6) 0.60989(3) 0.424(6) Uiso 0.27(6) 6 0.3333 d . . .
N3 N 0.333333 0.666667 0.371(6) Uiso 0.27(6) 2 1 d . . .

loop_
_atom_site_aniso_label
_atom_site_aniso_type_symbol
_atom_site_aniso_U_11
_atom_site_aniso_U_22
_atom_site_aniso_U_33
_atom_site_aniso_U_12
_atom_site_aniso_U_13
_atom_site_aniso_U_23
Sn1 Sn 0.0514(10) 0.0514(10) 0.0599(13) 0.0257(5) 0 0
Sn2 Sn 0.076(3) 0.076(3) 0.075(3) 0.0382(13) 0 0
Sn3 Sn 0.0485(17) 0.0485(17) 0.0287(14) 0.0242(8) 0 0
I1 I 0.1225(13) 0.1225(13) 0.1116(13) 0.0904(15) -0.0142(12) 0.0142(12)
I2 I 0.116(3) 0.116(3) 0.121(3) 0.078(3) 0.0146(13) -0.0146(13)
I3 I 0.124(3) 0.124(3) 0.119(3) 0.081(3) -0.0094(13) 0.0094(13)

loop_
_jana_atom_site_ADP_C_label
_jana_atom_site_ADP_C_type_symbol
_jana_atom_site_ADP_C_111
_jana_atom_site_ADP_C_112
_jana_atom_site_ADP_C_113
_jana_atom_site_ADP_C_122
_jana_atom_site_ADP_C_123
_jana_atom_site_ADP_C_133
_jana_atom_site_ADP_C_222
_jana_atom_site_ADP_C_223
_jana_atom_site_ADP_C_233
_jana_atom_site_ADP_C_333
? ? ? ? ? ? ? ? ? ? ? ?

loop_
_jana_atom_site_ADP_D_label
_jana_atom_site_ADP_D_type_symbol
_jana_atom_site_ADP_D_1111
_jana_atom_site_ADP_D_1112
_jana_atom_site_ADP_D_1113
_jana_atom_site_ADP_D_1122
_jana_atom_site_ADP_D_1123
_jana_atom_site_ADP_D_1133
_jana_atom_site_ADP_D_1222
_jana_atom_site_ADP_D_1223
_jana_atom_site_ADP_D_1233
_jana_atom_site_ADP_D_1333
_jana_atom_site_ADP_D_2222
_jana_atom_site_ADP_D_2223
_jana_atom_site_ADP_D_2233
_jana_atom_site_ADP_D_2333
_jana_atom_site_ADP_D_3333
? ? ? ? ? ? ? ? ? ? ? ? ? ? ? ? ?

loop_
_jana_atom_site_ADP_E_label
_jana_atom_site_ADP_E_type_symbol
_jana_atom_site_ADP_E_11111
_jana_atom_site_ADP_E_11112
_jana_atom_site_ADP_E_11113
_jana_atom_site_ADP_E_11122
_jana_atom_site_ADP_E_11123
_jana_atom_site_ADP_E_11133
_jana_atom_site_ADP_E_11222
_jana_atom_site_ADP_E_11223
_jana_atom_site_ADP_E_11233
_jana_atom_site_ADP_E_11333
_jana_atom_site_ADP_E_12222
_jana_atom_site_ADP_E_12223
_jana_atom_site_ADP_E_12233
_jana_atom_site_ADP_E_12333
_jana_atom_site_ADP_E_13333
_jana_atom_site_ADP_E_22222
_jana_atom_site_ADP_E_22223
_jana_atom_site_ADP_E_22233
_jana_atom_site_ADP_E_22333
_jana_atom_site_ADP_E_23333
_jana_atom_site_ADP_E_33333
? ? ? ? ? ? ? ? ? ? ? ? ? ? ? ? ? ? ? ? ? ? ?

loop_
_jana_atom_site_ADP_F_label
_jana_atom_site_ADP_F_type_symbol
_jana_atom_site_ADP_F_111111
_jana_atom_site_ADP_F_111112
_jana_atom_site_ADP_F_111113
_jana_atom_site_ADP_F_111122
_jana_atom_site_ADP_F_111123
_jana_atom_site_ADP_F_111133
_jana_atom_site_ADP_F_111222
_jana_atom_site_ADP_F_111223
_jana_atom_site_ADP_F_111233
_jana_atom_site_ADP_F_111333
_jana_atom_site_ADP_F_112222
_jana_atom_site_ADP_F_112223
_jana_atom_site_ADP_F_112233
_jana_atom_site_ADP_F_112333
_jana_atom_site_ADP_F_113333
_jana_atom_site_ADP_F_122222
_jana_atom_site_ADP_F_122223
_jana_atom_site_ADP_F_122233
_jana_atom_site_ADP_F_122333
_jana_atom_site_ADP_F_123333
_jana_atom_site_ADP_F_133333
_jana_atom_site_ADP_F_222222
_jana_atom_site_ADP_F_222223
_jana_atom_site_ADP_F_222233
_jana_atom_site_ADP_F_222333
_jana_atom_site_ADP_F_223333
_jana_atom_site_ADP_F_233333
_jana_atom_site_ADP_F_333333
? ? ? ? ? ? ? ? ? ? ? ? ? ? ? ? ? ? ? ? ? ? ? ? ? ? ? ? ? ?


#=======================================================================

# 10. MOLECULAR GEOMETRY


loop_
_geom_bond_atom_site_label_1
_geom_bond_atom_site_label_2
_geom_bond_site_symmetry_1
_geom_bond_site_symmetry_2
_geom_bond_distance
_geom_bond_publ_flag
Sn1 I2 . 1_455 3.165(6) ?
Sn1 I2 . 2_545 3.165(6) ?
Sn1 I2 . 3_665 3.165(6) ?
Sn1 I3 . 4_654 3.181(6) ?
Sn1 I3 . 5_564 3.181(6) ?
Sn1 I3 . 6_444 3.181(6) ?
Sn2 I1 . 4_665 3.172(5) ?
Sn2 I1 . 5_565 3.172(5) ?
Sn2 I1 . 6_555 3.172(5) ?
Sn2 I2 . 4_665 3.243(5) ?
Sn2 I2 . 5_565 3.243(5) ?
Sn2 I2 . 6_555 3.243(5) ?
Sn3 I1 . 4_665 3.112(4) ?
Sn3 I1 . 5_565 3.112(4) ?
Sn3 I1 . 6_555 3.112(4) ?
Sn3 I3 . 4_665 3.215(6) ?
Sn3 I3 . 5_565 3.215(6) ?
Sn3 I3 . 6_555 3.215(6) ?
I1 N3 . . 3.95(10) ?
I2 N1 . 1_645 3.87(12) ?
I3 N2 . 4_665 3.83(12) ?
C1 C2 . . 1.50(18) ?
C1 C2 . 2_555 1.50(18) ?
C1 C2 . 3_555 1.50(18) ?
C2 C2 . 2_555 1.5271(5) ?
C2 C2 . 3_555 1.5271(5) ?
C2 N1 . 1_545 1.50(18) ?
C3 C4 . . 1.50(19) ?
C3 C4 . 2_665 1.50(19) ?
C3 C4 . 3_565 1.50(19) ?
C4 C4 . 2_665 1.5271(7) ?
C4 C4 . 3_565 1.5271(6) ?
C4 N2 . . 1.50(19) ?
C5 C6 . . 1.50(16) ?
C5 C6 . 2_665 1.50(16) ?
C5 C6 . 3_565 1.50(16) ?
C6 C6 . 2_665 1.5271(7) ?
C6 C6 . 3_565 1.5271(6) ?
C6 N3 . . 1.50(16) ?

loop_
_geom_angle_atom_site_label_1
_geom_angle_atom_site_label_2
_geom_angle_atom_site_label_3
_geom_angle_site_symmetry_1
_geom_angle_site_symmetry_2
_geom_angle_site_symmetry_3
_geom_angle
_geom_angle_publ_flag
? ? ? ? ? ? ? ?

loop_
_geom_torsion_atom_site_label_1
_geom_torsion_atom_site_label_2
_geom_torsion_atom_site_label_3
_geom_torsion_atom_site_label_4
_geom_torsion_site_symmetry_1
_geom_torsion_site_symmetry_2
_geom_torsion_site_symmetry_3
_geom_torsion_site_symmetry_4
_geom_torsion
_geom_torsion_publ_flag
? ? ? ? ? ? ? ? ? ?

loop_
_geom_hbond_atom_site_label_D
_geom_hbond_atom_site_label_H
_geom_hbond_atom_site_label_A
_geom_hbond_site_symmetry_D
_geom_hbond_site_symmetry_H
_geom_hbond_site_symmetry_A
_geom_hbond_distance_DH
_geom_hbond_distance_HA
_geom_hbond_distance_DA
_geom_hbond_angle_DHA
_geom_hbond_publ_flag
? ? ? ? ? ? ? ? ? ? ?


#=======================================================================

# 11. STRUCTURE-FACTOR LIST

loop_
_refln_index_h
_refln_index_k
_refln_index_l
_refln_F_squared_calc
_refln_F_squared_meas
_refln_F_squared_sigma
_refln_observed_status
0 1 0 3.68 28.36 269.98 <
-1 2 0 2472.53 3450.62 209.13 o
0 2 0 0.46 1.84 174.91 <
-1 3 0 7.71 96.91 104.51 <
0 3 0 4984.19 3825.65 184.21 o
-1 4 0 78.73 61.45 109.52 <
0 4 0 17.50 3.94 148.91 <
-2 5 0 47.49 82.73 110.56 <
-1 5 0 1148.48 984.84 93.46 o
0 5 0 8.65 -3.68 154.16 <
-3 6 0 58.16 -1.58 161.52 <
-2 6 0 13.31 -17.86 100.58 <
-1 6 0 52.33 21.80 98.22 <
0 6 0 63626.60 64447.50 230.11 o
-3 7 0 18.45 102.69 89.80 <
-2 7 0 4032.23 4101.93 104.85 o
-1 7 0 68.15 30.46 95.60 <
0 7 0 10.86 55.68 133.41 <
-4 8 0 26882.10 26813.70 210.08 o
-3 8 0 63.88 111.35 93.74 <
-2 8 0 5.24 56.99 85.87 <
-1 8 0 303.89 322.24 101.36 o
0 8 0 6.02 51.74 142.34 <
-4 9 0 17.22 -72.75 98.21 <
-3 9 0 866.23 927.59 95.97 o
-2 9 0 0.54 47.27 96.64 <
-1 9 0 23.31 356.91 101.95 o
0 9 0 1136.71 1146.88 153.88 o
-5 10 0 180.66 100.06 137.63 <
-4 10 0 1.56 171.49 102.37 <
-3 10 0 25.49 245.29 104.95 o
-2 10 0 2677.72 2288.77 134.50 o
0 1 1 47027.70 44551.10 535.16 o
0 1 -1 47015.20 44675.60 583.90 o
0 2 1 9474.82 9451.59 198.05 o
0 2 -1 9478.72 9650.13 300.04 o
-1 3 1 13307.30 13101.80 142.76 o
-1 3 -1 13305.30 13450.80 216.38 o
0 3 1 3154.52 2650.93 151.69 o
0 3 -1 3152.79 2572.67 235.04 o
-1 4 1 21953.10 22736.70 101.73 o
-1 4 -1 21951.50 22989.10 171.87 o
0 4 1 833.69 716.18 144.08 o
0 4 -1 829.70 643.96 205.54 o
-2 5 1 18921.10 18667.60 147.03 o
-2 5 -1 18919.80 18611.40 202.86 o
-1 5 1 1550.44 1442.86 81.67 o
-1 5 -1 1551.17 1416.60 113.13 o
0 5 1 954.75 1257.45 136.41 o
0 5 -1 955.55 1269.00 157.75 o
-2 6 1 311.97 337.21 75.87 o
-2 6 -1 308.05 338.00 111.59 o
-1 6 1 3331.03 3346.36 83.35 o
-1 6 -1 3332.72 3418.06 108.01 o
0 6 1 111.27 296.50 120.71 o
0 6 -1 111.19 259.74 187.73 <
-3 7 1 640.20 714.34 90.19 o
-3 7 -1 640.84 812.56 109.99 o
-2 7 1 1193.83 968.56 94.94 o
-2 7 -1 1193.69 926.80 106.26 o
-1 7 1 5069.49 5070.23 110.29 o
-1 7 -1 5070.51 5152.17 129.14 o
0 7 1 3071.52 2773.84 144.98 o
0 7 -1 3071.66 2929.57 141.30 o
-3 8 1 2635.18 2769.90 100.14 o
-3 8 -1 2636.31 2841.07 101.47 o
-2 8 1 170.86 251.86 89.24 o
-2 8 -1 169.29 254.22 89.24 o
-1 8 1 190.40 316.73 106.80 o
-1 8 -1 190.41 212.99 98.21 o
0 8 1 36.85 10.51 142.87 <
0 8 -1 35.70 74.85 147.85 <
-4 9 1 1692.68 1515.34 99.76 o
-4 9 -1 1693.00 1518.49 100.79 o
-3 9 1 287.52 274.70 96.66 o
-3 9 -1 287.53 335.11 96.87 o
-2 9 1 26.00 294.93 93.34 o
-2 9 -1 25.71 271.82 95.99 o
-1 9 1 137.53 376.34 102.24 o
-1 9 -1 137.73 535.23 102.27 o
0 9 1 146.60 299.92 148.84 o
0 9 -1 146.60 364.79 146.17 o
-4 10 1 38.07 261.84 99.42 o
-4 10 -1 37.43 354.54 94.85 o
-3 10 1 247.71 394.46 110.18 o
-3 10 -1 248.01 500.04 110.84 o
-2 10 1 30.60 400.50 126.63 o
-2 10 -1 30.60 253.17 119.67 o
0 0 2 916.29 1324.41 1228.19 <
0 0 -2 917.23 1281.08 845.78 <
0 1 2 56378.00 50264.20 597.83 o
0 1 -2 56359.80 50014.70 601.78 o
-1 2 2 7.40 51.21 174.64 <
-1 2 -2 7.42 66.44 164.66 <
0 2 2 70557.80 70478.90 370.91 o
0 2 -2 70563.80 71998.70 398.33 o
-1 3 2 37993.70 38102.30 181.27 o
-1 3 -2 37995.20 38865.30 274.28 o
0 3 2 39.50 35.45 109.25 <
0 3 -2 39.40 84.04 191.71 <
-2 4 2 649.05 616.12 119.54 o
-2 4 -2 647.51 492.95 187.37 o
-1 4 2 28029.90 30278.00 592.05 o
-1 4 -2 28030.00 31225.50 118.45 o
0 4 2 13867.40 14258.40 160.18 o
0 4 -2 13864.70 14160.40 273.30 o
-2 5 2 12177.70 12358.10 98.43 o
-2 5 -2 12175.10 12359.10 168.47 o
-1 5 2 68.91 65.13 75.64 <
-1 5 -2 69.12 63.82 139.45 <
0 5 2 7882.47 8249.29 157.87 o
0 5 -2 7888.22 8454.14 240.42 o
-3 6 2 74.76 87.45 104.26 <
-3 6 -2 75.17 22.85 204.06 <
-2 6 2 2959.53 3196.14 77.06 o
-2 6 -2 2959.01 3234.22 121.28 o
-1 6 2 9251.76 9703.71 86.60 o
-1 6 -2 9253.75 10056.70 135.26 o
0 6 2 351.83 176.48 120.37 <
0 6 -2 350.78 173.60 178.38 <
-3 7 2 4453.81 4579.12 84.90 o
-3 7 -2 4456.62 4382.68 147.66 o
-2 7 2 117.99 148.38 85.34 <
-2 7 -2 117.96 112.14 114.51 <
-1 7 2 3621.34 3593.75 94.30 o
-1 7 -2 3619.83 3443.79 120.60 o
0 7 2 1217.43 1148.19 148.79 o
0 7 -2 1216.37 1199.14 169.95 o
-4 8 2 234.90 159.68 124.78 <
-4 8 -2 234.13 290.73 169.89 <
-3 8 2 3290.75 3748.70 95.30 o
-3 8 -2 3290.39 3467.69 120.00 o
-2 8 2 73.45 293.35 92.04 o
-2 8 -2 72.90 215.62 100.00 o
-1 8 2 62.76 76.42 107.15 <
-1 8 -2 63.09 107.41 116.60 <
0 8 2 1.31 201.43 136.25 <
0 8 -2 1.56 283.11 142.51 <
-4 9 2 820.53 574.89 98.92 o
-4 9 -2 819.84 751.63 102.82 o
-3 9 2 58.88 250.02 96.55 o
-3 9 -2 59.03 252.91 96.54 o
-2 9 2 546.08 587.49 102.10 o
-2 9 -2 546.99 637.39 93.86 o
-1 9 2 744.19 722.22 99.05 o
-1 9 -2 744.54 951.49 101.42 o
0 9 2 65.13 255.80 152.26 <
0 9 -2 65.02 463.80 147.88 o
-5 10 2 45.17 416.26 144.77 o
-5 10 -2 45.41 189.88 141.78 <
-4 10 2 14.44 304.12 102.27 o
-4 10 -2 14.48 331.96 98.29 o
-3 10 2 632.19 851.17 111.74 o
-3 10 -2 632.29 891.35 111.91 o
-2 10 2 76.00 316.20 126.20 o
-2 10 -2 75.74 318.30 123.05 o
0 1 3 11853.00 8474.89 264.77 o
0 1 -3 11831.20 8664.50 261.27 o
0 2 3 162480.00 164885.00 314.53 o
0 2 -3 162517.00 168500.00 3339.49 o
-1 3 3 22054.40 21011.50 198.57 o
-1 3 -3 22043.70 21528.60 203.51 o
0 3 3 2284.38 1948.41 129.07 o
0 3 -3 2284.95 1937.38 155.13 o
-1 4 3 7112.23 7389.73 90.89 o
-1 4 -3 7106.04 7310.67 142.48 o
0 4 3 47766.30 48497.30 193.46 o
0 4 -3 47775.70 48830.30 351.87 o
-2 5 3 92.06 214.83 75.56 o
-2 5 -3 91.57 241.61 119.17 o
-1 5 3 977.98 978.80 74.58 o
-1 5 -3 977.85 963.57 131.34 o
0 5 3 5511.23 4928.15 135.99 o
0 5 -3 5505.51 4838.33 220.52 o
-2 6 3 14511.50 13837.20 125.34 o
-2 6 -3 14520.10 13668.00 177.02 o
-1 6 3 5617.63 5756.46 85.00 o
-1 6 -3 5613.14 5751.74 139.53 o
0 6 3 83.84 167.55 110.54 <
0 6 -3 83.84 209.57 220.05 <
-3 7 3 3346.78 3089.51 87.61 o
-3 7 -3 3342.93 3008.36 142.21 o
-2 7 3 792.97 776.05 79.36 o
-2 7 -3 792.98 690.44 119.66 o
-1 7 3 140.00 219.55 82.41 o
-1 7 -3 139.42 -13.66 111.10 <
0 7 3 471.53 352.18 121.70 o
0 7 -3 473.12 309.90 178.67 <
-3 8 3 835.97 874.54 80.78 o
-3 8 -3 834.12 967.77 129.22 o
-2 8 3 2932.80 2811.39 86.17 o
-2 8 -3 2936.65 3163.84 115.79 o
-1 8 3 127.84 232.95 93.70 o
-1 8 -3 127.85 323.29 112.81 o
0 8 3 484.64 475.09 143.66 o
0 8 -3 486.11 463.01 178.34 o
-4 9 3 151.27 155.47 108.99 <
-4 9 -3 152.06 213.25 103.44 o
-3 9 3 188.57 240.30 94.51 o
-3 9 -3 188.57 380.54 113.57 o
-2 9 3 301.74 329.59 101.09 o
-2 9 -3 300.80 315.94 112.92 o
-1 9 3 602.99 807.31 102.03 o
-1 9 -3 601.61 656.82 128.61 o
0 9 3 95.54 479.55 151.30 o
0 9 -3 95.55 269.45 143.32 <
-4 10 3 286.27 521.31 125.58 o
-4 10 -3 287.31 350.87 102.89 o
-3 10 3 356.45 559.65 112.69 o
-3 10 -3 355.45 533.39 115.10 o
-2 10 3 21.31 337.21 129.59 o
-2 10 -3 21.31 285.47 119.90 o
0 0 4 1145.14 1228.03 757.64 <
0 0 -4 1144.33 1177.61 751.35 <
0 1 4 655.00 1403.99 187.60 o
0 1 -4 656.99 1515.08 180.98 o
-1 2 4 557.18 561.23 141.02 o
-1 2 -4 557.50 580.40 145.99 o
0 2 4 190439.00 192575.00 288.18 o
0 2 -4 190425.00 193824.00 3874.79 o
-1 3 4 1539.61 1585.73 112.49 o
-1 3 -4 1552.04 1612.51 106.65 o
0 3 4 212.54 342.73 144.37 o
0 3 -4 212.44 292.83 147.82 <
-2 4 4 515.69 137.62 123.39 <
-2 4 -4 516.78 163.35 173.49 <
-1 4 4 171.50 224.28 79.01 o
-1 4 -4 175.56 221.13 118.68 <
0 4 4 60756.60 61126.90 244.07 o
0 4 -4 60744.50 61838.90 361.50 o
-2 5 4 714.09 731.41 77.96 o
-2 5 -4 711.02 741.91 115.76 o
-1 5 4 43.18 80.89 72.74 <
-1 5 -4 42.89 217.19 123.11 <
0 5 4 2817.96 2856.57 117.41 o
0 5 -4 2820.98 2708.45 202.63 o
-3 6 4 18.91 209.05 122.58 <
-3 6 -4 18.64 92.18 184.62 <
-2 6 4 23681.70 24833.80 495.11 o
-2 6 -4 23674.80 24810.40 161.21 o
-1 6 4 539.95 413.63 70.08 o
-1 6 -4 544.18 420.99 120.15 o
0 6 4 349.35 112.40 105.43 <
0 6 -4 349.56 220.60 212.51 <
-3 7 4 1372.48 1362.76 74.63 o
-3 7 -4 1375.16 1354.62 130.84 o
-2 7 4 81.01 126.06 71.42 <
-2 7 -4 80.94 -35.98 115.56 <
-1 7 4 231.67 269.45 84.01 o
-1 7 -4 232.02 261.57 118.95 o
0 7 4 651.19 573.57 111.73 o
0 7 -4 649.69 620.06 166.27 o
-4 8 4 254.68 125.01 109.31 <
-4 8 -4 254.63 394.72 181.66 o
-3 8 4 181.41 236.36 73.23 o
-3 8 -4 182.71 237.94 126.03 <
-2 8 4 4047.84 3905.75 90.18 o
-2 8 -4 4045.78 3982.96 131.56 o
-1 8 4 5.10 168.60 95.28 <
-1 8 -4 5.21 110.83 116.06 <
0 8 4 2067.68 2105.72 125.89 o
0 8 -4 2066.78 2191.86 178.45 o
-4 9 4 328.39 399.98 92.89 o
-4 9 -4 327.90 360.32 139.70 o
-3 9 4 18.48 140.50 86.89 <
-3 9 -4 18.54 110.83 126.04 <
-2 9 4 669.25 694.64 95.55 o
-2 9 -4 669.43 574.36 108.61 o
-1 9 4 291.55 462.74 107.50 o
-1 9 -4 292.25 496.36 144.28 o
0 9 4 58.41 151.80 149.41 <
0 9 -4 58.31 375.03 141.39 o
-5 10 4 7.41 306.48 148.27 o
-5 10 -4 7.52 384.22 151.63 o
-4 10 4 952.79 933.10 125.57 o
-4 10 -4 952.25 1179.97 104.14 o
-3 10 4 159.77 371.61 107.52 o
-3 10 -4 160.29 257.11 111.04 o
-2 10 4 85.69 193.55 129.44 <
-2 10 -4 85.56 355.33 119.33 o
0 1 5 730.20 1276.62 173.99 o
0 1 -5 725.89 1311.02 170.21 o
0 2 5 109179.00 108601.00 438.46 o
0 2 -5 109167.00 111623.00 115.61 o
-1 3 5 7298.84 7226.90 128.20 o
-1 3 -5 7306.61 7353.75 120.57 o
0 3 5 1014.81 814.40 136.38 o
0 3 -5 1014.64 829.37 142.13 o
-1 4 5 192.97 248.44 88.99 o
-1 4 -5 193.21 173.07 98.23 <
0 4 5 35914.70 35552.80 219.80 o
0 4 -5 35907.80 36367.70 249.62 o
-2 5 5 57.18 65.66 70.91 <
-2 5 -5 53.40 -11.56 108.73 <
-1 5 5 565.30 637.91 74.16 o
-1 5 -5 565.32 596.16 116.56 o
0 5 5 8035.63 7838.55 134.18 o
0 5 -5 8039.12 7695.68 249.75 o
-2 6 5 16866.50 17103.90 95.40 o
-2 6 -5 16862.20 17254.20 160.72 o
-1 6 5 1616.80 1477.79 70.66 o
-1 6 -5 1619.70 1498.53 118.60 o
0 6 5 52.38 177.53 117.88 <
0 6 -5 52.39 -1.05 205.90 <
-3 7 5 3650.28 3550.42 85.69 o
-3 7 -5 3652.58 3831.43 137.10 o
-2 7 5 441.05 413.90 73.31 o
-2 7 -5 441.06 378.18 119.81 o
-1 7 5 10.04 95.33 75.35 <
-1 7 -5 10.16 57.51 131.83 <
0 7 5 24.02 165.72 112.36 <
0 7 -5 23.27 48.59 194.60 <
-3 8 5 66.36 89.82 80.88 <
-3 8 -5 67.21 89.82 119.49 <
-2 8 5 2357.34 2110.71 78.29 o
-2 8 -5 2355.88 2270.39 119.67 o
-1 8 5 82.64 283.37 94.16 o
-1 8 -5 82.64 279.17 139.90 <
0 8 5 2206.17 2107.56 131.48 o
0 8 -5 2205.27 2249.12 225.22 o
-4 9 5 7.61 186.46 85.54 o
-4 9 -5 7.45 364.26 140.60 o
-3 9 5 117.70 261.05 80.26 o
-3 9 -5 117.70 265.25 143.60 <
-2 9 5 1332.16 1374.58 92.01 o
-2 9 -5 1332.26 1288.70 117.52 o
-1 9 5 515.53 585.39 92.86 o
-1 9 -5 515.86 612.70 138.82 o
0 9 5 63.80 349.82 151.14 o
0 9 -5 63.80 478.24 171.54 o
-4 10 5 858.59 1058.11 116.15 o
-4 10 -5 858.06 1111.16 122.34 o
-3 10 5 187.49 384.22 106.21 o
-3 10 -5 187.78 442.26 134.55 o
0 0 6 224457.00 229817.00 1373.02 o
0 0 -6 224440.00 228861.00 1433.73 o
0 1 6 3.43 155.21 166.22 <
0 1 -6 3.41 101.37 164.13 <
-1 2 6 184171.00 169795.00 1251.05 o
-1 2 -6 184220.00 169755.00 1253.12 o
0 2 6 267.76 159.15 142.91 <
0 2 -6 267.69 36.24 138.72 <
-1 3 6 45.06 61.72 95.86 <
-1 3 -6 44.83 94.54 105.04 <
0 3 6 92805.60 90747.50 462.87 o
0 3 -6 92839.10 93160.00 309.87 o
-2 4 6 47816.10 51568.70 1016.76 o
-2 4 -6 47808.80 51837.60 1016.17 o
-1 4 6 28.09 79.58 84.82 <
-1 4 -6 28.05 31.78 87.19 <
0 4 6 242.84 -32.04 118.74 <
0 4 -6 243.92 139.19 136.34 <
-2 5 6 10.11 41.23 79.31 <
-2 5 -6 10.26 31.78 105.31 <
-1 5 6 46127.30 44951.30 227.42 o
-1 5 -6 46132.90 46196.70 196.96 o
0 5 6 44.56 101.64 110.29 <
0 5 -6 44.50 311.47 206.35 <
-3 6 6 39154.20 38935.90 209.92 o
-3 6 -6 39153.80 39330.10 312.72 o
-2 6 6 205.43 188.83 69.87 o
-2 6 -6 205.66 208.26 107.15 <
-1 6 6 50.10 181.74 71.37 o
-1 6 -6 49.77 106.62 118.96 <
0 6 6 2664.21 2765.70 124.15 o
0 6 -6 2668.07 2689.80 206.61 o
-3 7 6 22.92 36.50 76.42 <
-3 7 -6 22.81 82.73 127.36 <
-2 7 6 8686.51 8446.26 94.97 o
-2 7 -6 8688.08 8805.53 152.10 o
-1 7 6 7.57 98.48 73.78 <
-1 7 -6 7.53 127.64 124.46 <
0 7 6 38.71 103.47 103.20 <
0 7 -6 38.87 174.12 179.08 <
-4 8 6 451.21 503.98 105.25 o
-4 8 -6 453.48 420.72 191.47 o
-3 8 6 21.66 153.11 68.75 o
-3 8 -6 21.55 52.00 119.75 <
-2 8 6 111.46 96.12 77.74 <
-2 8 -6 111.62 177.01 114.74 <
-1 8 6 6294.31 6156.97 122.67 o
-1 8 -6 6293.05 6390.96 185.57 o
0 8 6 84.26 298.60 119.65 o
0 8 -6 84.34 247.65 171.18 <
-4 9 6 7.06 196.71 87.11 o
-4 9 -6 7.11 325.13 129.86 o
-3 9 6 3187.59 2846.59 88.96 o
-3 9 -6 3187.13 3030.69 150.55 o
-2 9 6 29.58 169.13 85.30 <
-2 9 -6 29.59 252.12 116.25 o
-1 9 6 10.82 322.50 91.46 o
-1 9 -6 10.74 337.47 140.10 o
0 9 6 632.47 574.89 138.73 o
0 9 -6 632.95 758.20 177.66 o
-5 10 6 2559.71 2573.98 136.76 o
-5 10 -6 2559.07 2584.75 228.93 o
-4 10 6 47.49 244.24 95.76 o
-4 10 -6 47.55 265.78 144.63 <
-3 10 6 8.65 333.80 96.97 o
-3 10 -6 8.59 293.61 142.76 o
0 1 7 1814.23 1700.76 159.48 o
0 1 -7 1809.79 1730.96 171.71 o
0 2 7 39054.00 39723.20 220.92 o
0 2 -7 39041.80 40240.90 193.80 o
-1 3 7 5178.12 5557.92 104.92 o
-1 3 -7 5175.43 5543.21 108.39 o
0 3 7 3870.66 4033.91 145.89 o
0 3 -7 3868.46 4029.97 144.84 o
-1 4 7 829.49 890.30 85.45 o
-1 4 -7 825.78 906.58 87.24 o
0 4 7 13955.40 14356.60 171.51 o
0 4 -7 13955.40 14558.10 164.02 o
-2 5 7 267.31 338.79 84.23 o
-2 5 -7 263.64 281.27 88.23 o
-1 5 7 1853.95 1755.91 86.68 o
-1 5 -7 1854.88 1826.55 98.10 o
0 5 7 4236.40 3948.29 125.41 o
0 5 -7 4237.49 4021.83 156.98 o
-2 6 7 6935.22 6812.74 88.70 o
-2 6 -7 6937.54 6991.85 128.96 o
-1 6 7 1350.39 1419.48 76.09 o
-1 6 -7 1349.38 1483.83 115.64 o
0 6 7 135.63 346.93 111.21 o
0 6 -7 135.54 394.20 178.20 o
-3 7 7 2069.89 2074.21 83.49 o
-3 7 -7 2070.50 2040.85 133.27 o
-2 7 7 1526.44 1374.31 75.62 o
-2 7 -7 1526.26 1503.52 128.49 o
-1 7 7 102.13 76.16 71.44 <
-1 7 -7 100.40 231.37 125.48 <
0 7 7 97.26 200.65 105.27 <
0 7 -7 96.43 -67.23 208.78 <
-3 8 7 197.65 68.54 72.54 <
-3 8 -7 196.50 108.99 115.06 <
-2 8 7 1031.25 934.42 74.92 o
-2 8 -7 1032.32 784.46 131.22 o
-1 8 7 238.29 423.35 84.88 o
-1 8 -7 238.30 235.05 159.94 <
0 8 7 1017.57 934.42 128.85 o
0 8 -7 1018.56 1034.21 223.74 o
-4 9 7 63.40 258.68 82.34 o
-4 9 -7 62.77 265.78 143.32 <
-3 9 7 368.83 425.71 77.39 o
-3 9 -7 368.84 423.09 133.90 o
-2 9 7 683.75 801.27 85.07 o
-2 9 -7 684.28 800.74 126.40 o
-1 9 7 353.18 532.86 89.83 o
-1 9 -7 353.14 512.38 141.68 o
0 9 7 189.97 423.88 134.30 o
0 9 -7 189.97 689.39 198.98 o
-4 10 7 409.97 496.89 94.43 o
-4 10 -7 410.49 487.69 146.74 o
-3 10 7 172.24 389.47 97.51 o
-3 10 -7 172.03 283.11 159.10 <
0 0 8 1273.70 1631.16 360.71 o
0 0 -8 1275.61 1654.01 489.74 o
0 1 8 199.72 57.51 157.86 <
0 1 -8 205.84 254.22 183.29 <
-1 2 8 1641.94 1795.04 168.45 o
-1 2 -8 1640.18 1641.66 168.60 o
0 2 8 118886.00 122781.00 2435.68 o
0 2 -8 118842.00 122687.00 2433.46 o
-1 3 8 158.05 150.22 94.55 <
-1 3 -8 158.37 119.23 96.66 <
0 3 8 888.16 843.02 137.95 o
0 3 -8 886.23 819.39 135.89 o
-2 4 8 433.74 475.88 131.27 o
-2 4 -8 436.22 474.30 142.57 o
-1 4 8 109.15 116.34 83.77 <
-1 4 -8 113.11 55.41 82.74 <
0 4 8 43673.70 45466.60 134.79 o
0 4 -8 43663.00 46716.40 927.23 o
-2 5 8 1012.17 1199.14 86.80 o
-2 5 -8 1014.47 1221.47 88.84 o
-1 5 8 803.22 715.39 81.37 o
-1 5 -8 801.94 749.27 84.43 o
0 5 8 409.57 326.44 115.89 o
0 5 -8 405.15 305.70 134.01 o
-3 6 8 909.23 785.51 111.33 o
-3 6 -8 908.19 757.15 154.63 o
-2 6 8 16959.20 16922.70 107.12 o
-2 6 -8 16955.60 17051.90 149.16 o
-1 6 8 1.71 157.05 75.05 o
-1 6 -8 2.08 32.04 99.80 <
0 6 8 81.43 105.57 119.75 <
0 6 -8 82.56 122.91 183.30 <
-3 7 8 157.09 142.87 76.96 <
-3 7 -8 155.25 151.80 129.48 <
-2 7 8 172.86 82.99 70.42 <
-2 7 -8 172.49 210.62 109.50 <
-1 7 8 302.34 343.51 72.43 o
-1 7 -8 304.32 403.92 123.88 o
0 7 8 918.82 928.64 120.79 o
0 7 -8 919.27 1070.98 215.16 o
-4 8 8 45.08 79.84 114.50 <
-4 8 -8 45.84 -75.37 156.52 <
-3 8 8 63.88 91.39 74.58 <
-3 8 -8 65.07 119.76 118.43 <
-2 8 8 3385.93 3307.75 78.37 o
-2 8 -8 3385.49 3314.32 137.29 o
-1 8 8 334.56 354.81 81.92 o
-1 8 -8 334.23 337.73 144.18 o
0 8 8 1423.40 1470.43 118.55 o
0 8 -8 1422.57 1249.30 206.71 o
-4 9 8 427.57 589.59 80.87 o
-4 9 -8 428.18 577.51 186.88 o
-3 9 8 175.24 378.70 80.94 o
-3 9 -8 175.07 354.28 136.20 o
-2 9 8 251.38 361.63 83.40 o
-2 9 -8 250.30 402.87 124.37 o
-1 9 8 39.50 318.04 92.26 o
-1 9 -8 39.45 341.67 141.15 o
-5 10 8 181.17 309.63 120.47 o
-5 10 -8 180.96 300.70 213.21 <
-4 10 8 715.12 760.82 91.29 o
-4 10 -8 714.76 664.18 155.27 o
-3 10 8 28.67 367.67 97.72 o
-3 10 -8 28.84 309.37 158.26 <
0 1 9 3665.52 3669.13 172.79 o
0 1 -9 3678.23 3669.13 164.20 o
0 2 9 68787.40 70796.70 110.89 o
0 2 -9 68733.60 70845.80 75.22 o
-1 3 9 7005.89 6994.48 106.82 o
-1 3 -9 7022.61 7022.31 109.52 o
0 3 9 985.99 961.47 134.51 o
0 3 -9 986.25 725.89 135.14 o
-1 4 9 1703.61 1464.66 87.79 o
-1 4 -9 1709.84 1394.54 89.66 o
0 4 9 26198.60 28732.90 67.75 o
0 4 -9 26173.70 28600.10 55.14 o
-2 5 9 503.38 339.05 85.55 o
-2 5 -9 502.44 416.52 82.85 o
-1 5 9 474.15 441.73 85.66 o
-1 5 -9 474.11 535.75 84.46 o
0 5 9 1655.28 1563.14 119.04 o
0 5 -9 1659.63 1569.18 132.13 o
-2 6 9 8795.01 8546.58 105.87 o
-2 6 -9 8786.83 8756.42 113.29 o
-1 6 9 1807.41 1774.29 80.30 o
-1 6 -9 1812.05 1783.48 98.62 o
0 6 9 44.31 139.72 120.26 <
0 6 -9 44.31 154.16 128.13 <
-3 7 9 1082.78 983.00 79.39 o
-3 7 -9 1085.99 926.54 123.77 o
-2 7 9 397.71 406.28 74.05 o
-2 7 -9 397.71 354.28 107.72 o
-1 7 9 114.69 148.12 73.78 o
-1 7 -9 114.93 58.57 123.71 <
0 7 9 756.57 778.42 110.00 o
0 7 -9 755.13 413.90 198.79 o
-3 8 9 196.85 212.73 75.36 o
-3 8 -9 198.15 266.30 119.19 o
-2 8 9 2151.72 2257.52 75.33 o
-2 8 -9 2148.69 2266.45 133.15 o
-1 8 9 67.67 228.75 77.90 o
-1 8 -9 67.67 263.94 138.85 <
0 8 9 429.64 453.82 113.17 o
0 8 -9 428.65 511.59 215.04 o
-4 9 9 294.28 387.11 76.57 o
-4 9 -9 293.58 430.70 157.49 o
-3 9 9 99.26 287.05 80.49 o
-3 9 -9 99.26 333.01 138.29 o
-2 9 9 102.44 231.90 88.69 o
-2 9 -9 103.20 203.53 154.92 <
-1 9 9 233.68 457.23 91.41 o
-1 9 -9 234.77 386.85 168.26 o
-4 10 9 274.82 432.28 98.59 o
-4 10 -9 274.09 281.01 149.43 <
0 0 10 8793.05 9063.69 443.16 o
0 0 -10 8789.89 8662.67 436.37 o
0 1 10 32242.10 36075.70 708.78 o
0 1 -10 32254.90 35221.90 42.68 o
-1 2 10 200.02 217.72 142.34 <
-1 2 -10 201.67 38.34 138.70 <
0 2 10 5779.39 5244.87 149.70 o
0 2 -10 5794.33 5358.06 149.57 o
-1 3 10 14890.70 15029.70 112.84 o
-1 3 -10 14892.10 14682.00 120.52 o
0 3 10 91.65 34.67 118.19 <
0 3 -10 92.23 71.17 114.77 <
-2 4 10 2703.87 2499.92 132.11 o
-2 4 -10 2700.26 2772.53 123.79 o
-1 4 10 15136.60 14726.40 131.69 o
-1 4 -10 15138.40 14557.50 133.88 o
0 4 10 1083.27 562.02 124.78 o
0 4 -10 1095.28 774.22 120.91 o
-2 5 10 10314.80 10500.80 101.93 o
-2 5 -10 10319.00 10593.20 97.75 o
-1 5 10 242.02 99.80 84.11 <
-1 5 -10 242.82 -28.10 88.03 <
0 5 10 2353.55 2385.15 126.16 o
0 5 -10 2354.02 2462.63 117.06 o
-3 6 10 399.41 111.88 118.58 <
-3 6 -10 400.46 100.32 119.89 <
-2 6 10 294.63 227.70 86.46 o
-2 6 -10 301.32 107.15 83.88 <
-1 6 10 3695.36 3634.98 93.08 o
-1 6 -10 3692.00 3594.80 104.64 o
0 6 10 322.78 435.17 115.45 o
0 6 -10 321.38 321.98 129.21 o
-3 7 10 1410.18 1374.84 80.00 o
-3 7 -10 1408.95 1309.18 115.86 o
-2 7 10 36.29 51.21 71.96 <
-2 7 -10 36.25 44.91 106.10 <
-1 7 10 2851.58 2674.57 85.56 o
-1 7 -10 2850.50 2705.82 126.90 o
0 7 10 1725.22 1624.33 113.58 o
0 7 -10 1726.48 1986.23 194.98 o
-4 8 10 113.19 219.82 106.05 o
-4 8 -10 112.44 89.03 169.92 <
-3 8 10 1892.19 1895.89 90.58 o
-3 8 -10 1890.46 1867.26 136.91 o
-2 8 10 192.75 218.24 75.35 o
-2 8 -10 195.07 325.92 133.60 o
-1 8 10 195.63 215.62 78.25 o
-1 8 -10 195.89 167.55 135.52 <
0 8 10 89.49 304.12 115.70 o
0 8 -10 90.78 286.26 211.62 <
-4 9 10 981.13 944.40 82.58 o
-4 9 -10 981.33 853.53 145.70 o
-3 9 10 83.96 257.90 81.56 o
-3 9 -10 84.05 328.02 161.41 o
-2 9 10 205.22 389.73 87.01 o
-2 9 -10 205.55 547.05 148.12 o
-1 9 10 267.64 341.15 98.68 o
-1 9 -10 266.98 473.25 158.49 o
-5 10 10 113.40 255.53 123.11 o
-5 10 -10 113.52 249.76 202.71 <
0 1 11 27824.30 29787.60 147.30 o
0 1 -11 27830.90 28673.30 200.43 o
0 2 11 2776.24 3027.80 138.29 o
0 2 -11 2780.38 2810.34 125.88 o
-1 3 11 8817.75 8402.93 110.78 o
-1 3 -11 8811.44 8505.88 103.89 o
0 3 11 176.66 232.68 111.06 o
0 3 -11 176.48 152.85 113.46 <
-1 4 11 13762.00 13915.90 112.71 o
-1 4 -11 13764.10 14094.50 102.01 o
0 4 11 355.33 327.23 114.26 o
0 4 -11 359.66 292.04 118.49 o
-2 5 11 11974.20 12188.10 103.01 o
-2 5 -11 11978.60 12131.40 104.65 o
-1 5 11 111.43 163.88 82.44 <
-1 5 -11 111.50 220.87 84.50 o
0 5 11 697.33 431.23 123.99 o
0 5 -11 693.18 649.99 113.00 o
-2 6 11 151.30 239.51 87.13 o
-2 6 -11 153.38 274.97 84.21 o
-1 6 11 2364.14 2353.11 92.26 o
-1 6 -11 2361.99 2377.01 97.07 o
0 6 11 18.16 179.63 108.41 <
0 6 -11 18.16 77.74 130.78 <
-3 7 11 486.15 494.78 81.93 o
-3 7 -11 484.05 663.13 107.93 o
-2 7 11 97.60 174.12 75.07 o
-2 7 -11 97.58 269.45 100.49 o
-1 7 11 3588.88 3516.80 85.63 o
-1 7 -11 3589.39 3639.19 126.47 o
0 7 11 2111.01 2014.85 125.17 o
0 7 -11 2111.93 1797.40 200.91 o
-3 8 11 1941.21 1912.69 81.59 o
-3 8 -11 1940.83 1887.74 126.27 o
-2 8 11 100.88 260.79 76.31 o
-2 8 -11 101.78 261.31 121.00 o
-1 8 11 25.24 311.47 78.05 o
-1 8 -11 25.24 212.73 124.69 <
0 8 11 10.37 308.06 141.44 o
0 8 -11 10.82 404.44 228.88 <
-4 9 11 1227.28 1135.33 85.95 o
-4 9 -11 1227.64 1103.29 141.04 o
-3 9 11 32.82 348.50 82.48 o
-3 9 -11 32.82 239.51 152.26 <
-2 9 11 13.49 224.81 86.57 o
-2 9 -11 13.23 284.16 145.92 <
-1 9 11 116.01 332.74 92.02 o
-1 9 -11 115.72 239.51 149.65 <
0 0 12 267566.00 262624.00 1417.97 o
0 0 -12 267519.00 250241.00 1886.68 o
0 1 12 54.60 120.02 154.94 <
0 1 -12 54.45 -5.25 147.60 <
-1 2 12 1201.64 708.03 129.57 o
-1 2 -12 1209.05 734.82 129.30 o
0 2 12 177.33 58.04 121.10 <
0 2 -12 177.47 70.65 129.24 <
-1 3 12 140.38 107.15 87.47 <
-1 3 -12 140.32 90.08 88.00 <
0 3 12 2950.49 2797.47 134.54 o
0 3 -12 2950.40 2858.40 134.73 o
-2 4 12 103373.00 105789.00 2105.95 o
-2 4 -12 103345.00 106886.00 2112.25 o
-1 4 12 131.25 181.74 84.80 o
-1 4 -12 131.10 118.18 85.88 <
0 4 12 134.46 56.46 114.52 <
0 4 -12 134.59 222.44 117.88 <
-2 5 12 34.45 125.80 84.01 <
-2 5 -12 34.26 65.13 86.92 <
-1 5 12 1344.54 1626.43 90.92 o
-1 5 -12 1346.99 1593.87 86.04 o
0 5 12 29.09 38.87 117.39 <
0 5 -12 29.21 143.13 111.85 <
-3 6 12 473.89 575.93 112.27 o
-3 6 -12 477.77 581.98 122.26 o
-2 6 12 86.32 112.93 85.08 <
-2 6 -12 86.28 138.93 85.60 <
-1 6 12 152.17 209.31 86.90 o
-1 6 -12 152.21 33.09 83.54 <
0 6 12 19038.50 18173.30 192.67 o
0 6 -12 19033.90 18795.00 197.89 o
-3 7 12 42.46 110.04 83.76 <
-3 7 -12 42.56 118.18 89.27 <
-2 7 12 2185.79 2064.49 84.59 o
-2 7 -12 2184.74 1934.75 99.58 o
-1 7 12 74.21 192.77 80.30 o
-1 7 -12 74.17 166.50 105.28 <
0 7 12 29.49 190.40 107.62 <
0 7 -12 29.37 240.04 145.43 <
-4 8 12 8733.13 8219.88 136.34 o
-4 8 -12 8731.04 7998.49 221.43 o
-3 8 12 96.13 214.56 77.67 o
-3 8 -12 96.17 181.21 117.10 <
-2 8 12 44.06 201.96 80.28 o
-2 8 -12 43.97 151.80 119.20 <
-1 8 12 323.66 513.96 87.98 o
-1 8 -12 324.89 726.94 136.89 o
0 8 12 23.29 232.16 120.73 <
0 8 -12 23.26 295.45 233.93 <
-4 9 12 13.39 287.05 83.87 o
-4 9 -12 13.32 313.57 144.85 o
-3 9 12 544.35 769.75 84.07 o
-3 9 -12 544.79 787.35 147.02 o
-2 9 12 2.97 259.47 88.11 o
-2 9 -12 2.99 594.06 160.07 o
0 1 13 6196.09 6829.28 151.14 o
0 1 -13 6198.50 6533.57 157.65 o
0 2 13 464.73 381.33 126.13 o
0 2 -13 462.28 457.49 120.81 o
-1 3 13 2682.21 2533.80 99.78 o
-1 3 -13 2680.56 2469.72 94.49 o
0 3 13 1977.52 2452.39 127.21 o
0 3 -13 1976.92 2488.10 122.99 o
-1 4 13 3148.57 3121.82 88.76 o
-1 4 -13 3151.26 3144.40 91.19 o
0 4 13 514.66 584.60 119.41 o
0 4 -13 512.89 404.97 114.88 o
-2 5 13 2795.55 2959.25 88.39 o
-2 5 -13 2798.68 2935.35 88.64 o
-1 5 13 990.24 1045.77 90.70 o
-1 5 -13 990.52 1028.44 85.76 o
0 5 13 607.48 444.62 110.24 o
0 5 -13 605.38 452.24 122.03 o
-2 6 13 295.11 323.82 86.38 o
-2 6 -13 293.41 99.80 83.09 <
-1 6 13 689.28 506.08 93.53 o
-1 6 -13 689.36 453.82 91.24 o
0 6 13 82.54 303.59 122.27 o
0 6 -13 82.51 274.18 119.14 o
-3 7 13 328.22 215.62 84.13 o
-3 7 -13 327.33 223.76 84.65 o
-2 7 13 884.56 924.96 84.71 o
-2 7 -13 884.50 986.16 94.01 o
-1 7 13 873.85 830.42 82.32 o
-1 7 -13 875.07 795.49 109.67 o
0 7 13 637.70 642.38 126.84 o
0 7 -13 638.37 690.18 154.63 o
-3 8 13 489.73 607.45 82.25 o
-3 8 -13 490.40 607.19 114.09 o
-2 8 13 245.94 346.66 82.89 o
-2 8 -13 245.48 417.57 118.83 o
-1 8 13 147.12 382.91 83.29 o
-1 8 -13 147.12 316.99 130.96 o
0 8 13 72.40 313.57 125.15 o
0 8 -13 71.83 526.30 232.49 o
-4 9 13 364.55 628.20 84.91 o
-4 9 -13 365.01 532.08 134.57 o
-3 9 13 228.70 461.69 82.96 o
-3 9 -13 228.70 476.14 131.90 o
-2 9 13 69.86 338.00 90.94 o
-2 9 -13 69.43 478.76 145.50 o
0 0 14 5115.98 5288.73 350.70 o
0 0 -14 5111.66 4357.73 350.63 o
0 1 14 9808.66 10915.50 134.57 o
0 1 -14 9804.44 10557.00 148.73 o
-1 2 14 213.37 317.78 134.40 o
-1 2 -14 214.12 56.99 133.45 <
0 2 14 7740.05 7351.12 153.78 o
0 2 -14 7742.32 7178.05 159.93 o
-1 3 14 8420.57 8572.85 98.44 o
-1 3 -14 8421.50 8523.74 100.14 o
0 3 14 372.77 129.21 125.64 <
0 3 -14 373.71 355.33 119.77 o
-2 4 14 2811.41 2718.69 126.07 o
-2 4 -14 2809.55 2581.34 127.34 o
-1 4 14 5426.91 4900.31 97.92 o
-1 4 -14 5425.11 5122.75 100.66 o
0 4 14 2206.84 2209.46 125.00 o
0 4 -14 2207.25 2337.09 121.73 o
-2 5 14 1872.82 1889.84 88.41 o
-2 5 -14 1871.41 1819.99 91.41 o
-1 5 14 145.73 71.70 91.41 <
-1 5 -14 146.18 102.42 87.47 <
0 5 14 2275.03 2342.08 121.78 o
0 5 -14 2277.80 2330.00 119.75 o
-3 6 14 49.23 272.08 114.14 o
-3 6 -14 49.56 52.52 107.41 <
-2 6 14 510.91 370.04 88.68 o
-2 6 -14 511.65 630.82 90.66 o
-1 6 14 2485.30 2113.86 92.76 o
-1 6 -14 2485.14 2285.88 87.58 o
0 6 14 972.11 939.41 127.96 o
0 6 -14 971.36 737.97 120.44 o
-3 7 14 1376.60 1226.98 87.51 o
-3 7 -14 1377.61 1468.33 91.54 o
-2 7 14 278.49 279.43 91.66 o
-2 7 -14 278.73 262.36 87.73 o
-1 7 14 786.60 768.70 93.01 o
-1 7 -14 785.43 696.22 107.05 o
0 7 14 154.98 417.31 113.51 o
0 7 -14 154.81 308.32 142.01 o
-4 8 14 576.43 472.46 114.10 o
-4 8 -14 575.93 685.71 175.59 o
-3 8 14 881.52 814.40 80.29 o
-3 8 -14 880.78 824.64 115.93 o
-2 8 14 25.01 304.64 83.33 o
-2 8 -14 25.23 260.79 123.34 o
-1 8 14 23.72 317.51 83.31 o
-1 8 -14 23.89 260.00 122.29 o
0 8 14 16.84 284.95 119.90 o
0 8 -14 17.37 513.17 200.94 o
-4 9 14 147.95 451.98 86.60 o
-4 9 -14 147.62 382.91 133.53 o
-3 9 14 56.05 359.80 89.58 o
-3 9 -14 56.15 334.58 133.28 o
0 1 15 2973.09 3372.10 136.43 o
0 1 -15 2966.61 3048.28 123.95 o
0 2 15 7431.69 7578.03 141.06 o
0 2 -15 7446.49 7368.98 156.71 o
-1 3 15 4726.21 5172.65 93.89 o
-1 3 -15 4720.99 5011.40 96.73 o
0 3 15 228.73 222.71 114.51 <
0 3 -15 228.72 221.65 118.18 <
-1 4 15 1714.79 1529.52 95.11 o
-1 4 -15 1711.75 1491.44 96.55 o
0 4 15 2977.01 3153.59 128.34 o
0 4 -15 2984.01 3295.15 119.67 o
-2 5 15 114.70 37.82 85.63 <
-2 5 -15 114.56 51.21 84.84 <
-1 5 15 118.81 111.61 89.03 <
-1 5 -15 118.82 128.69 87.45 <
0 5 15 1775.48 2027.46 118.66 o
0 5 -15 1773.07 2180.31 118.15 o
-2 6 15 846.91 689.13 87.55 o
-2 6 -15 850.58 751.11 90.31 o
-1 6 15 1540.20 1330.19 90.43 o
-1 6 -15 1538.10 1541.61 88.75 o
0 6 15 12.90 171.23 123.66 <
0 6 -15 12.90 156.52 116.04 <
-3 7 15 1128.78 1155.28 85.00 o
-3 7 -15 1127.09 1282.66 88.19 o
-2 7 15 105.73 296.50 95.73 o
-2 7 -15 105.72 203.80 92.13 o
-1 7 15 110.15 173.33 88.21 <
-1 7 -15 110.16 265.25 100.76 o
0 7 15 65.69 159.41 119.47 <
0 7 -15 66.54 134.20 141.01 <
-3 8 15 314.42 424.93 89.95 o
-3 8 -15 313.80 411.80 100.49 o
-2 8 15 255.97 510.54 91.08 o
-2 8 -15 257.52 532.34 119.22 o
-1 8 15 19.46 251.33 85.49 o
-1 8 -15 19.46 406.28 126.10 o
-4 9 15 36.73 393.67 86.10 o
-4 9 -15 37.20 352.97 128.52 o
0 0 16 1057.64 549.41 213.97 o
0 0 -16 1063.55 555.45 293.16 <
0 1 16 1278.43 1070.46 116.10 o
0 1 -16 1283.96 987.99 127.26 o
-1 2 16 1409.61 1207.81 137.33 o
-1 2 -16 1407.09 1232.50 137.53 o
0 2 16 16237.40 16208.40 162.29 o
0 2 -16 16230.70 16246.20 174.26 o
-1 3 16 2296.89 2280.89 95.17 o
-1 3 -16 2301.24 2247.28 87.83 o
0 3 16 834.74 781.04 125.89 o
0 3 -16 833.74 798.90 134.78 o
-2 4 16 596.79 407.07 129.40 o
-2 4 -16 600.76 403.65 127.30 o
-1 4 16 785.48 778.42 90.10 o
-1 4 -16 789.23 776.84 87.75 o
0 4 16 6745.51 6271.73 143.90 o
0 4 -16 6740.01 6452.42 134.57 o
-2 5 16 396.94 305.43 81.25 o
-2 5 -16 397.69 406.80 82.71 o
-1 5 16 398.44 378.70 85.64 o
-1 5 -16 397.30 369.51 81.97 o
0 5 16 1855.04 1506.94 120.75 o
0 5 -16 1854.92 1830.23 117.50 o
-3 6 16 326.23 135.25 115.38 <
-3 6 -16 324.84 371.09 112.89 o
-2 6 16 3332.09 3229.75 92.36 o
-2 6 -16 3328.64 3067.98 98.89 o
-1 6 16 814.83 1015.31 93.74 o
-1 6 -16 816.90 920.50 88.49 o
0 6 16 295.63 188.04 121.65 <
0 6 -16 297.07 35.98 124.03 <
-3 7 16 1016.28 975.39 87.05 o
-3 7 -16 1016.85 1156.86 89.62 o
-2 7 16 160.50 297.03 93.13 o
-2 7 -16 160.57 396.04 92.75 o
-1 7 16 189.08 546.26 89.10 o
-1 7 -16 190.11 322.24 87.34 o
0 7 16 148.85 298.34 133.08 o
0 7 -16 148.37 492.42 143.41 o
-4 8 16 198.35 320.40 130.19 o
-4 8 -16 199.18 338.52 146.73 o
-3 8 16 244.65 445.15 95.91 o
-3 8 -16 245.79 423.88 102.78 o
-2 8 16 665.47 791.29 94.54 o
-2 8 -16 664.21 714.34 123.36 o
-1 8 16 46.43 361.37 90.89 o
-1 8 -16 46.02 372.40 120.88 o
0 1 17 870.38 779.99 111.79 o
0 1 -17 869.71 574.89 109.21 o
0 2 17 14551.60 15292.60 149.35 o
0 2 -17 14550.30 14357.10 170.14 o
-1 3 17 2210.32 2326.06 101.47 o
-1 3 -17 2213.65 2260.67 92.93 o
0 3 17 30.50 311.73 125.93 o
0 3 -17 30.47 85.62 122.64 <
-1 4 17 388.43 307.27 88.59 o
-1 4 -17 388.21 369.77 87.47 o
0 4 17 6137.22 6109.17 143.97 o
0 4 -17 6135.97 6011.21 134.65 o
-2 5 17 175.01 143.39 83.53 <
-2 5 -17 173.15 254.48 80.83 o
-1 5 17 19.75 174.38 83.19 o
-1 5 -17 19.76 97.96 84.81 <
0 5 17 2114.56 2232.31 122.87 o
0 5 -17 2116.42 2226.79 117.90 o
-2 6 17 3368.14 3217.67 99.03 o
-2 6 -17 3367.47 3383.39 98.34 o
-1 6 17 603.39 763.71 92.38 o
-1 6 -17 604.32 696.48 88.32 o
0 6 17 5.30 248.97 121.77 o
0 6 -17 5.30 215.09 122.32 <
-3 7 17 1045.99 1111.95 90.66 o
-3 7 -17 1047.04 1168.42 89.67 o
-2 7 17 19.74 244.77 96.80 o
-2 7 -17 19.74 360.85 98.26 o
-1 7 17 28.19 312.26 93.84 o
-1 7 -17 27.84 406.02 89.50 o
0 7 17 75.06 442.79 138.70 o
0 7 -17 74.51 341.67 147.21 o
-3 8 17 70.90 408.64 95.05 o
-3 8 -17 70.99 353.76 101.44 o
-2 8 17 622.63 630.56 101.10 o
-2 8 -17 622.29 793.91 115.26 o
0 0 18 1983.79 2664.32 227.33 o
0 0 -18 1993.37 2159.56 289.09 o
0 1 18 12.07 125.80 112.64 <
0 1 -18 12.07 -99.80 115.80 <
-1 2 18 15614.30 15635.10 166.77 o
-1 2 -18 15606.70 15363.00 178.27 o
0 2 18 262.29 249.23 128.96 <
0 2 -18 262.30 -5.78 143.96 <
-1 3 18 13.59 260.52 94.95 o
-1 3 -18 13.40 247.39 94.43 o
0 3 18 9329.91 9548.50 160.74 o
0 3 -18 9327.67 9155.09 156.37 o
-2 4 18 269.39 301.76 134.45 o
-2 4 -18 272.78 407.86 115.97 o
-1 4 18 2.66 191.98 87.12 o
-1 4 -18 2.73 104.53 83.23 <
0 4 18 188.68 250.28 113.42 o
0 4 -18 188.70 178.59 122.65 <
-2 5 18 40.45 96.65 89.80 <
-2 5 -18 40.57 85.09 86.66 <
-1 5 18 5501.67 5125.38 101.95 o
-1 5 -18 5500.28 5187.88 100.85 o
0 5 18 38.91 302.81 125.94 o
0 5 -18 38.73 361.37 122.99 o
-3 6 18 4813.60 4176.78 140.40 o
-3 6 -18 4811.97 4320.17 138.01 o
-2 6 18 122.51 244.77 94.74 o
-2 6 -18 122.49 236.10 90.01 o
-1 6 18 13.05 289.41 91.23 o
-1 6 -18 13.00 252.91 86.80 o
0 6 18 37.72 386.58 117.71 o
0 6 -18 38.83 295.98 122.26 o
-3 7 18 10.67 345.88 90.64 o
-3 7 -18 10.57 455.92 89.41 o
-2 7 18 1478.20 1518.76 98.06 o
-2 7 -18 1478.58 1627.48 97.85 o
-1 7 18 7.19 472.99 97.56 o
-1 7 -18 7.26 334.58 90.91 o
0 7 18 43.73 483.23 132.33 o
0 7 -18 43.79 270.24 144.89 <
-4 8 18 73.71 367.67 135.88 o
-4 8 -18 74.38 477.71 137.87 o
-3 8 18 7.03 352.70 94.84 o
-3 8 -18 7.05 288.62 95.97 o
0 1 19 892.30 660.76 118.83 o
0 1 -19 891.81 539.96 113.74 o
0 2 19 1235.17 1094.36 143.95 o
0 2 -19 1235.97 1091.47 143.44 o
-1 3 19 836.26 836.20 96.38 o
-1 3 -19 837.29 859.04 98.70 o
0 3 19 465.35 672.32 130.27 o
0 3 -19 465.31 446.72 136.06 o
-1 4 19 522.66 380.02 84.76 o
-1 4 -19 522.06 310.68 84.82 o
0 4 19 597.38 446.72 115.99 o
0 4 -19 597.76 522.62 130.61 o
-2 5 19 362.97 310.95 88.29 o
-2 5 -19 361.94 182.26 89.16 o
-1 5 19 249.59 299.13 89.78 o
-1 5 -19 249.61 420.99 87.53 o
0 5 19 455.49 633.45 135.31 o
0 5 -19 456.40 706.72 126.52 o
-2 6 19 378.30 528.66 93.03 o
-2 6 -19 378.75 474.56 87.32 o
-1 6 19 323.68 529.71 89.54 o
-1 6 -19 323.81 493.21 94.07 o
0 6 19 24.78 387.63 129.01 o
0 6 -19 24.78 358.74 129.30 o
-3 7 19 283.43 519.47 88.45 o
-3 7 -19 283.89 489.01 91.93 o
-2 7 19 240.95 406.54 97.80 o
-2 7 -19 240.94 472.46 95.08 o
-1 7 19 133.61 380.80 97.49 o
-1 7 -19 133.15 468.26 96.84 o
0 0 20 154.24 -45.70 256.59 <
0 0 -20 156.15 -547.05 279.48 <
0 1 20 86.10 237.15 105.24 o
0 1 -20 85.89 201.96 117.35 <
-1 2 20 998.09 730.88 125.48 o
-1 2 -20 997.87 740.34 111.60 o
0 2 20 5647.52 5878.32 137.40 o
0 2 -20 5649.69 5763.56 121.22 o
-1 3 20 49.28 101.90 92.69 <
-1 3 -20 48.38 154.95 89.25 <
0 3 20 640.85 447.77 123.12 o
0 3 -20 640.51 239.51 127.42 <
-2 4 20 103.90 58.04 130.27 <
-2 4 -20 104.96 257.11 124.42 o
-1 4 20 35.60 172.28 91.08 <
-1 4 -20 35.77 121.07 86.64 <
0 4 20 2593.31 2403.28 141.65 o
0 4 -20 2594.05 2427.70 142.07 o
-2 5 20 197.43 454.34 89.80 o
-2 5 -20 197.74 356.38 84.94 o
-1 5 20 517.64 537.59 87.68 o
-1 5 -20 517.44 532.34 87.96 o
0 5 20 125.65 391.57 135.09 o
0 5 -20 124.78 338.52 133.56 o
-3 6 20 521.87 515.01 135.26 o
-3 6 -20 521.71 646.32 134.31 o
-2 6 20 1195.43 1160.27 91.51 o
-2 6 -20 1195.55 1115.37 89.83 o
-1 6 20 9.43 328.28 94.61 o
-1 6 -20 9.35 267.88 93.36 o
0 6 20 49.59 627.93 140.55 o
0 6 -20 49.97 431.49 129.76 o
-3 7 20 49.13 376.34 89.56 o
-3 7 -20 48.75 454.86 95.50 o
-2 7 20 154.70 527.35 98.87 o
-2 7 -20 154.62 487.96 95.77 o
0 1 21 362.44 296.24 101.43 o
0 1 -21 363.86 163.09 100.71 <
0 2 21 2648.18 2770.16 122.45 o
0 2 -21 2644.31 2427.96 127.46 o
-1 3 21 115.31 -27.05 99.81 <
-1 3 -21 116.91 220.08 89.24 o
0 3 21 31.12 205.90 140.46 <
0 3 -21 31.11 147.07 137.33 <
-1 4 21 203.28 342.46 90.75 o
-1 4 -21 204.13 262.62 90.56 o
0 4 21 1394.80 1303.14 134.71 o
0 4 -21 1392.43 1404.52 142.31 o
-2 5 21 449.48 535.23 93.37 o
-2 5 -21 449.37 466.95 87.69 o
-1 5 21 16.76 290.46 93.86 o
-1 5 -21 16.77 293.35 90.18 o
0 5 21 61.37 192.50 140.47 <
0 5 -21 62.21 455.39 140.26 o
-2 6 21 592.95 658.40 90.48 o
-2 6 -21 591.82 756.10 89.21 o
-1 6 21 58.86 453.55 94.71 o
-1 6 -21 59.67 245.29 95.76 o
0 6 21 2.13 312.52 147.74 o
0 6 -21 2.13 414.68 140.81 o
0 0 22 1749.75 1583.89 295.96 o
0 0 -22 1747.25 1174.72 302.18 o
0 1 22 2119.00 2394.35 119.13 o
0 1 -22 2117.57 2403.01 111.89 o
-1 2 22 257.19 200.91 118.21 <
-1 2 -22 258.18 338.00 113.92 o
0 2 22 347.14 427.29 117.32 o
0 2 -22 350.01 379.76 116.06 o
-1 3 22 1073.92 1359.08 94.85 o
-1 3 -22 1073.06 1114.05 93.10 o
0 3 22 204.61 548.36 139.43 o
0 3 -22 204.96 314.62 145.18 o
-2 4 22 780.63 789.97 142.33 o
-2 4 -22 778.91 665.49 136.20 o
-1 4 22 1196.43 1109.59 97.97 o
-1 4 -22 1195.34 1057.85 104.13 o
0 4 22 311.63 493.73 120.11 o
0 4 -22 313.39 525.77 137.43 o
-2 5 22 1053.55 1127.45 99.58 o
-2 5 -22 1053.24 1244.31 93.38 o
-1 5 22 153.06 303.59 95.49 o
-1 5 -22 153.57 416.79 91.93 o
0 5 22 300.99 408.12 135.70 o
0 5 -22 301.17 952.80 148.31 o
-3 6 22 147.68 528.92 155.74 o
-3 6 -22 148.35 507.65 142.87 o
-2 6 22 204.48 419.15 95.65 o
-2 6 -22 205.58 493.47 97.12 o
-1 6 22 358.25 513.43 96.97 o
-1 6 -22 357.62 593.01 91.30 o
0 1 23 1998.65 1868.84 127.11 o
0 1 -23 1998.96 1825.24 126.49 o
0 2 23 127.74 194.60 124.99 <
0 2 -23 128.04 298.87 117.30 o
-1 3 23 991.84 898.44 86.67 o
-1 3 -23 991.07 835.41 92.06 o
0 3 23 5.51 436.48 142.11 o
0 3 -23 5.51 299.65 128.56 o
-1 4 23 1189.58 1248.52 101.44 o
-1 4 -23 1189.75 1295.26 102.60 o
0 4 23 140.98 619.27 142.46 o
0 4 -23 141.23 496.10 146.56 o
-2 5 23 1006.98 1231.71 102.01 o
-2 5 -23 1007.59 1043.67 99.43 o
-1 5 23 3.61 470.10 101.25 o
-1 5 -23 3.61 339.05 101.96 o
0 5 23 227.31 436.48 140.10 o
0 5 -23 226.72 634.76 148.28 o
0 0 24 6797.51 6980.56 350.43 o
0 0 -24 6797.65 7296.23 316.37 o
0 1 24 42.50 186.46 118.14 <
0 1 -24 42.49 434.38 121.33 o
-1 2 24 999.96 1152.92 116.22 o
-1 2 -24 1000.07 1057.33 108.58 o
0 2 24 1.91 199.07 119.96 <
0 2 -24 1.85 528.14 123.82 o
-1 3 24 56.23 245.55 82.88 o
-1 3 -24 56.31 466.68 88.36 o
0 3 24 961.81 997.45 132.55 o
0 3 -24 961.66 926.54 117.73 o
-2 4 24 3417.96 2974.22 151.63 o
-2 4 -24 3417.83 2857.09 158.63 o
-1 4 24 43.42 467.21 99.43 o
-1 4 -24 43.38 388.16 97.44 o
0 4 24 0.13 282.06 154.07 <
0 4 -24 0.11 440.68 139.21 o
-2 5 24 11.86 642.38 107.00 o
-2 5 -24 11.80 566.22 105.04 o
-1 5 24 526.21 653.15 109.32 o
-1 5 -24 526.32 812.03 103.74 o
0 1 25 322.77 382.91 119.97 o
0 1 -25 322.89 407.59 114.96 o
0 2 25 308.70 347.45 121.04 o
0 2 -25 308.78 307.01 119.50 o
-1 3 25 260.39 337.73 83.17 o
-1 3 -25 260.13 393.94 83.89 o
0 3 25 53.60 501.61 117.56 o
0 3 -25 53.59 324.60 124.87 o
-1 4 25 198.02 522.89 97.06 o
-1 4 -25 198.12 447.51 96.39 o
0 4 25 207.26 551.77 169.68 o
0 4 -25 207.32 497.94 148.44 o
0 0 26 642.03 1027.65 319.06 o
0 0 -26 641.51 460.38 223.08 o
0 1 26 259.89 500.83 117.95 o
0 1 -26 260.08 589.07 122.57 o
-1 2 26 306.99 444.62 114.11 o
-1 2 -26 307.14 592.74 127.07 o
0 2 26 32.23 278.12 117.02 o
0 2 -26 31.62 342.20 119.33 o
-1 3 26 219.43 376.08 89.14 o
-1 3 -26 219.70 513.17 86.29 o
0 3 26 281.22 351.39 132.58 o
0 3 -26 281.34 429.92 121.21 o
0 1 27 303.18 437.01 129.10 o
0 1 -27 302.94 600.36 123.90 o
0 2 27 135.21 226.65 117.88 <
0 2 -27 136.03 445.15 125.57 o

loop_
_twin_refln_datum_id
_twin_refln_individual_id
_twin_refln_index_h
_twin_refln_index_k
_twin_refln_index_l
_twin_refln_F_squared_calc
_twin_refln_F_squared_meas
_twin_refln_F_squared_sigma
_twin_refln_include_status
? ? ? ? ? ? ? ? ?



