####################################################################### 
# 
# This file contains crystal structure data downloaded from the 
# Cambridge Structural Database (CSD) hosted by the Cambridge 
# Crystallographic Data Centre (CCDC).
# 
# Full information about CCDC data access policies and citation 
# guidelines are available at http://www.ccdc.cam.ac.uk/access/V1 
# 
# Audit and citation data items may have been added by the CCDC. 
# Please retain this information to preserve the provenance of 
# this file and to allow appropriate attribution of the data. 
# 
#######################################################################

data_6a.IPA3SnI5-293KK
_audit_block_doi                 10.5517/ccdc.csd.cc1ncdp3
_database_code_depnum_ccdc_archive 'CCDC 1530305'
loop_
_citation_id
_citation_doi
_citation_year
1 10.1021/acs.inorgchem.6b02764 2017
_audit_update_record             
;
2017-01-30 deposited with the CCDC.	2022-09-05 downloaded from the CCDC.
;
#======================================================================= 

_audit_creation_method           SHELXL-97
_chemical_name_systematic        
; 
 ? 
;
_chemical_name_common            'Tri-isopropylammonium Tin Iodide'
_chemical_melting_point          ?
_chemical_formula_moiety         (C3H7NH3)3SnI5
_chemical_formula_sum            'C9 H30 I5 N3 Sn'
_chemical_formula_weight         933.55

loop_
_atom_type_symbol
_atom_type_description
_atom_type_scat_dispersion_real
_atom_type_scat_dispersion_imag
_atom_type_scat_source
C C 0.0033 0.0016 'International Tables Vol C Tables 4.2.6.8 and 6.1.1.4'
H H 0.0000 0.0000 'International Tables Vol C Tables 4.2.6.8 and 6.1.1.4'
N N 0.0061 0.0033 'International Tables Vol C Tables 4.2.6.8 and 6.1.1.4'
Sn Sn -0.6537 1.4246 'International Tables Vol C Tables 4.2.6.8 and 6.1.1.4'
I I -0.4742 1.8119 'International Tables Vol C Tables 4.2.6.8 and 6.1.1.4'

_symmetry_cell_setting           orthorhombic
_symmetry_space_group_name_H-M   'P 21 21 21'
_symmetry_space_group_name_Hall  'P 2ac 2ab'
_symmetry_Int_Tables_number      19

loop_
_symmetry_equiv_pos_as_xyz
'x, y, z'
'-x+1/2, -y, z+1/2'
'-x, y+1/2, -z+1/2'
'x+1/2, -y+1/2, -z'

_cell_length_a                   9.0068(4)
_cell_length_b                   12.4329(8)
_cell_length_c                   22.4324(10)
_cell_angle_alpha                90.00
_cell_angle_beta                 90.00
_cell_angle_gamma                90.00
_cell_volume                     2512.0(2)
_cell_formula_units_Z            4
_cell_measurement_temperature    293(2)
_cell_measurement_reflns_used    13584
_cell_measurement_theta_min      1.82
_cell_measurement_theta_max      25.26

_exptl_crystal_description       'rectangular needle'
_exptl_crystal_colour            yellow
_exptl_crystal_size_max          0.098
_exptl_crystal_size_mid          0.069
_exptl_crystal_size_min          0.061
_exptl_crystal_density_meas      ?
_exptl_crystal_density_diffrn    2.468
_exptl_crystal_density_method    'not measured'
_exptl_crystal_F_000             1680
_exptl_absorpt_coefficient_mu    7.156
_exptl_absorpt_correction_type   integration
_exptl_absorpt_correction_T_min  0.2180
_exptl_absorpt_correction_T_max  0.3774
_exptl_absorpt_process_details   X-SHAPE

_exptl_special_details           
; 
 ? 
;

_diffrn_ambient_temperature      293(2)
_diffrn_measurement_device       '2-circle goniometer'
_diffrn_measurement_device_type  'STOE IPDS 2'
_diffrn_detector                 'image plate (34 cm diameter)'
_diffrn_detector_type            STOE
_diffrn_detector_area_resol_mean 6.67
_diffrn_source                   
'sealed X-ray tube, 12 x 0.4 mm long-fine focus'
_diffrn_source_voltage           40
_diffrn_source_current           30
_diffrn_source_power             1.20
_diffrn_radiation_type           'Mo K\a'
_diffrn_radiation_wavelength     0.71073
_diffrn_radiation_monochromator  'plane graphite'
_diffrn_radiation_polarisn_norm  0
_diffrn_radiation_collimation    '0.5 mm diameter, monocapillary'
_diffrn_measurement_method       'rotation method'
_diffrn_measurement_details      
; 180 frames, detector distance = 100 mm
;

_diffrn_reflns_number            23971
_diffrn_reflns_av_R_equivalents  0.0528
_diffrn_reflns_av_sigmaI/netI    0.0462
_diffrn_reflns_limit_h_min       -12
_diffrn_reflns_limit_h_max       12
_diffrn_reflns_limit_k_min       -17
_diffrn_reflns_limit_k_max       17
_diffrn_reflns_limit_l_min       -30
_diffrn_reflns_limit_l_max       29
_diffrn_reflns_theta_min         1.82
_diffrn_reflns_theta_max         29.25
_reflns_number_total             6738
_reflns_number_gt                5782
_reflns_threshold_expression     >2sigma(I)

_computing_data_collection       'STOE X-AREA'
_computing_cell_refinement       'STOE X-AREA'
_computing_data_reduction        'STOE X-RED'
_computing_structure_solution    'SHELXS-97 (Sheldrick, 2008)'
_computing_structure_refinement  'SHELXL-97 (Sheldrick, 2008)'
_computing_molecular_graphics    ?
_computing_publication_material  ?

_refine_special_details          
; 
 Refinement of F^2^ against ALL reflections.  The weighted R-factor wR and 
 goodness of fit S are based on F^2^, conventional R-factors R are based 
 on F, with F set to zero for negative F^2^. The threshold expression of 
 F^2^ > 2sigma(F^2^) is used only for calculating R-factors(gt) etc. and is 
 not relevant to the choice of reflections for refinement.  R-factors based 
 on F^2^ are statistically about twice as large as those based on F, and R- 
 factors based on ALL data will be even larger. 
;

_refine_ls_structure_factor_coef Fsqd
_refine_ls_matrix_type           full
_refine_ls_weighting_scheme      calc
_refine_ls_weighting_details     
'calc w=1/[\s^2^(Fo^2^)+(0.0473P)^2^+3.3292P] where P=(Fo^2^+2Fc^2^)/3'
_atom_sites_solution_primary     direct
_atom_sites_solution_secondary   difmap
_atom_sites_solution_hydrogens   geom
_refine_ls_hydrogen_treatment    mixed
_refine_ls_extinction_method     none
_refine_ls_extinction_coef       ?
_refine_ls_abs_structure_details 'Flack H D (1983), Acta Cryst. A39, 876-881'
_refine_ls_abs_structure_Flack   -0.03(10)
_refine_ls_number_reflns         6738
_refine_ls_number_parameters     109
_refine_ls_number_restraints     0
_refine_ls_R_factor_all          0.0900
_refine_ls_R_factor_gt           0.0730
_refine_ls_wR_factor_ref         0.1304
_refine_ls_wR_factor_gt          0.1247
_refine_ls_goodness_of_fit_ref   1.235
_refine_ls_restrained_S_all      1.235
_refine_ls_shift/su_max          0.000
_refine_ls_shift/su_mean         0.000

loop_
_atom_site_label
_atom_site_type_symbol
_atom_site_fract_x
_atom_site_fract_y
_atom_site_fract_z
_atom_site_U_iso_or_equiv
_atom_site_adp_type
_atom_site_occupancy
_atom_site_symmetry_multiplicity
_atom_site_calc_flag
_atom_site_refinement_flags
_atom_site_disorder_assembly
_atom_site_disorder_group
Sn Sn 0.50700(6) 0.16996(4) 0.09123(2) 0.04783(12) Uani 1 1 d . . .
I1 I 0.76122(6) 0.27643(4) 0.01263(2) 0.05373(12) Uani 1 1 d . . .
I2 I 0.22863(7) 0.08346(5) 0.16338(3) 0.07063(17) Uani 1 1 d . . .
I3 I 0.57086(7) -0.04490(5) 0.01970(4) 0.07619(19) Uani 1 1 d . . .
I4 I 0.74180(8) 0.10414(7) 0.18204(3) 0.0906(2) Uani 1 1 d . . .
I5 I 0.44985(8) 0.40913(5) 0.13998(3) 0.07850(19) Uani 1 1 d . . .
C1 C 0.5224(15) 0.2789(11) 0.3176(8) 0.130(3) Uani 1 1 d . . .
H1 H 0.5548 0.2482 0.2795 0.156 Uiso 1 1 calc R . .
C2 C 0.3753(15) 0.2211(11) 0.3211(8) 0.130(3) Uani 1 1 d . . .
H2A H 0.3075 0.2520 0.2929 0.195 Uiso 1 1 calc R . .
H2B H 0.3355 0.2282 0.3606 0.195 Uiso 1 1 calc R . .
H2C H 0.3896 0.1463 0.3121 0.195 Uiso 1 1 calc R . .
C3 C 0.6412(15) 0.2419(11) 0.3516(8) 0.130(3) Uani 1 1 d . . .
H3A H 0.7275 0.2846 0.3434 0.195 Uiso 1 1 calc R . .
H3B H 0.6611 0.1681 0.3418 0.195 Uiso 1 1 calc R . .
H3C H 0.6167 0.2473 0.3932 0.195 Uiso 1 1 calc R . .
C4 C 0.9998(14) -0.1004(8) 0.0223(6) 0.0951(18) Uani 1 1 d . . .
H4 H 0.9246 -0.1229 -0.0067 0.114 Uiso 1 1 calc R . .
C5 C 0.9675(14) 0.0179(9) 0.0347(6) 0.0951(18) Uani 1 1 d . . .
H5A H 0.9836 0.0591 -0.0009 0.143 Uiso 1 1 calc R . .
H5B H 1.0325 0.0433 0.0656 0.143 Uiso 1 1 calc R . .
H5C H 0.8663 0.0258 0.0473 0.143 Uiso 1 1 calc R . .
C6 C 0.9669(13) -0.1617(9) 0.0767(6) 0.0951(18) Uani 1 1 d . . .
H6A H 0.9813 -0.2370 0.0692 0.143 Uiso 1 1 calc R . .
H6B H 0.8658 -0.1492 0.0883 0.143 Uiso 1 1 calc R . .
H6C H 1.0322 -0.1389 0.1081 0.143 Uiso 1 1 calc R . .
C7 C -0.0114(18) 0.4154(10) 0.1702(6) 0.111(2) Uani 1 1 d . . .
H7 H -0.1124 0.3876 0.1648 0.133 Uiso 1 1 calc R . .
C8 C 0.0093(17) 0.3704(11) 0.2256(5) 0.111(2) Uani 1 1 d . . .
H8A H -0.0401 0.4134 0.2551 0.167 Uiso 1 1 calc R . .
H8B H 0.1136 0.3675 0.2344 0.167 Uiso 1 1 calc R . .
H8C H -0.0310 0.2989 0.2261 0.167 Uiso 1 1 calc R . .
C9 C 0.0541(16) 0.3547(11) 0.1192(6) 0.111(2) Uani 1 1 d . . .
H9A H 0.0296 0.3903 0.0825 0.167 Uiso 1 1 calc R . .
H9B H 0.0147 0.2829 0.1186 0.167 Uiso 1 1 calc R . .
H9C H 0.1600 0.3517 0.1235 0.167 Uiso 1 1 calc R . .
N1 N 0.5139(13) 0.3813(9) 0.2993(6) 0.130(3) Uani 1 1 d . . .
H1A H 0.4354 0.3893 0.2756 0.195 Uiso 1 1 calc R . .
H1B H 0.5960 0.3984 0.2794 0.195 Uiso 1 1 calc R . .
H1C H 0.5047 0.4243 0.3308 0.195 Uiso 1 1 calc R . .
N2 N 1.1367(10) -0.1131(7) -0.0069(5) 0.0951(18) Uani 1 1 d . . .
H2D H 1.1371 -0.0741 -0.0402 0.143 Uiso 1 1 calc R . .
H2E H 1.1500 -0.1821 -0.0159 0.143 Uiso 1 1 calc R . .
H2F H 1.2096 -0.0912 0.0169 0.143 Uiso 1 1 calc R . .
N3 N -0.0469(13) 0.5187(8) 0.1598(4) 0.111(2) Uani 1 1 d . . .
H3D H -0.0614 0.5284 0.1210 0.167 Uiso 1 1 calc R . .
H3E H 0.0267 0.5609 0.1722 0.167 Uiso 1 1 calc R . .
H3F H -0.1296 0.5351 0.1796 0.167 Uiso 1 1 calc R . .

loop_
_atom_site_aniso_label
_atom_site_aniso_U_11
_atom_site_aniso_U_22
_atom_site_aniso_U_33
_atom_site_aniso_U_23
_atom_site_aniso_U_13
_atom_site_aniso_U_12
Sn 0.0408(2) 0.0535(2) 0.0491(3) 0.0049(2) -0.0008(2) -0.0019(2)
I1 0.0499(2) 0.0540(2) 0.0572(3) 0.0063(2) 0.0119(2) -0.0057(2)
I2 0.0557(3) 0.0792(3) 0.0770(4) 0.0208(3) 0.0151(3) -0.0011(3)
I3 0.0715(3) 0.0503(3) 0.1068(5) -0.0113(3) -0.0115(4) 0.0006(3)
I4 0.0737(4) 0.1288(6) 0.0693(4) 0.0162(4) -0.0238(3) 0.0133(4)
I5 0.0833(4) 0.0639(3) 0.0883(4) -0.0198(3) 0.0124(3) -0.0048(3)
C1 0.110(4) 0.097(4) 0.183(7) 0.046(4) -0.051(4) -0.026(4)
C2 0.110(4) 0.097(4) 0.183(7) 0.046(4) -0.051(4) -0.026(4)
C3 0.110(4) 0.097(4) 0.183(7) 0.046(4) -0.051(4) -0.026(4)
C4 0.089(3) 0.073(3) 0.123(5) 0.011(3) 0.020(3) 0.003(3)
C5 0.089(3) 0.073(3) 0.123(5) 0.011(3) 0.020(3) 0.003(3)
C6 0.089(3) 0.073(3) 0.123(5) 0.011(3) 0.020(3) 0.003(3)
C7 0.140(5) 0.111(4) 0.082(3) -0.021(3) 0.005(4) 0.045(4)
C8 0.140(5) 0.111(4) 0.082(3) -0.021(3) 0.005(4) 0.045(4)
C9 0.140(5) 0.111(4) 0.082(3) -0.021(3) 0.005(4) 0.045(4)
N1 0.110(4) 0.097(4) 0.183(7) 0.046(4) -0.051(4) -0.026(4)
N2 0.089(3) 0.073(3) 0.123(5) 0.011(3) 0.020(3) 0.003(3)
N3 0.140(5) 0.111(4) 0.082(3) -0.021(3) 0.005(4) 0.045(4)

_geom_special_details            
; 
 All esds (except the esd in the dihedral angle between two l.s. planes) 
 are estimated using the full covariance matrix.  The cell esds are taken 
 into account individually in the estimation of esds in distances, angles 
 and torsion angles; correlations between esds in cell parameters are only 
 used when they are defined by crystal symmetry.  An approximate (isotropic) 
 treatment of cell esds is used for estimating esds involving l.s. planes.
 All the IPA are refined anisotropically.The IPA cations are heavily 
 disordered and they deviate from their ideal geometry. The disorder results
 in the erroneous assignment of the C-N bonds as double bonds.
 No attempt to restrain the disordered atoms was made because of the uncertainty
 in the positions of the C and N atoms.
;

loop_
_geom_bond_atom_site_label_1
_geom_bond_atom_site_label_2
_geom_bond_distance
_geom_bond_site_symmetry_2
_geom_bond_publ_flag
Sn I4 3.0482(9) . ?
Sn I3 3.1689(8) . ?
Sn I2 3.1721(8) . ?
Sn I1 3.1787(7) . ?
Sn I5 3.2098(9) . ?
C1 N1 1.339(17) . ?
C1 C3 1.393(19) . ?
C1 C2 1.510(18) . ?
C4 N2 1.405(15) . ?
C4 C6 1.468(17) . ?
C4 C5 1.525(15) . ?
C7 N3 1.344(16) . ?
C7 C8 1.377(17) . ?
C7 C9 1.492(17) . ?

loop_
_geom_angle_atom_site_label_1
_geom_angle_atom_site_label_2
_geom_angle_atom_site_label_3
_geom_angle
_geom_angle_site_symmetry_1
_geom_angle_site_symmetry_3
_geom_angle_publ_flag
I4 Sn I3 89.21(3) . . ?
I4 Sn I2 96.68(2) . . ?
I3 Sn I2 96.66(2) . . ?
I4 Sn I1 89.01(2) . . ?
I3 Sn I1 86.53(2) . . ?
I2 Sn I1 173.49(2) . . ?
I4 Sn I5 97.60(3) . . ?
I3 Sn I5 169.29(3) . . ?
I2 Sn I5 90.77(2) . . ?
I1 Sn I5 85.34(2) . . ?
N1 C1 C3 121.8(13) . . ?
N1 C1 C2 114.8(12) . . ?
C3 C1 C2 119.1(13) . . ?
N2 C4 C6 120.4(10) . . ?
N2 C4 C5 111.2(10) . . ?
C6 C4 C5 108.1(11) . . ?
N3 C7 C8 125.2(11) . . ?
N3 C7 C9 116.4(11) . . ?
C8 C7 C9 115.7(12) . . ?

_diffrn_measured_fraction_theta_max 0.988
_diffrn_reflns_theta_full        29.25
_diffrn_measured_fraction_theta_full 0.988
_refine_diff_density_max         1.400
_refine_diff_density_min         -1.086
_refine_diff_density_rms         0.151
