####################################################################### 
# 
# This file contains crystal structure data downloaded from the 
# Cambridge Structural Database (CSD) hosted by the Cambridge 
# Crystallographic Data Centre (CCDC).
# 
# Full information about CCDC data access policies and citation 
# guidelines are available at http://www.ccdc.cam.ac.uk/access/V1 
# 
# Audit and citation data items may have been added by the CCDC. 
# Please retain this information to preserve the provenance of 
# this file and to allow appropriate attribution of the data. 
# 
#######################################################################

data_2a.EASnI3-293K
_audit_block_doi                 10.5517/ccdc.csd.cc1ncdxb
_database_code_depnum_ccdc_archive 'CCDC 1530312'
loop_
_citation_id
_citation_doi
_citation_year
1 10.1021/acs.inorgchem.6b02764 2017
_audit_update_record             
;
2017-01-30 deposited with the CCDC.	2022-09-05 downloaded from the CCDC.
;
#=======================================================================
_audit_creation_method           SHELXL-97
_chemical_name_systematic        
; 
 ? 
;
_chemical_name_common            'Ethylammonium Tin Iodide'
_chemical_melting_point          ?
_chemical_formula_moiety         (CH3CH2NH3)SnI3
_chemical_formula_sum            'C2 H8 I3 N Sn'
_chemical_formula_weight         545.48

loop_
_atom_type_symbol
_atom_type_description
_atom_type_scat_dispersion_real
_atom_type_scat_dispersion_imag
_atom_type_scat_source
C C 0.0033 0.0016 'International Tables Vol C Tables 4.2.6.8 and 6.1.1.4'
H H 0.0000 0.0000 'International Tables Vol C Tables 4.2.6.8 and 6.1.1.4'
N N 0.0061 0.0033 'International Tables Vol C Tables 4.2.6.8 and 6.1.1.4'
Sn Sn -0.6537 1.4246 'International Tables Vol C Tables 4.2.6.8 and 6.1.1.4'
I I -0.4742 1.8119 'International Tables Vol C Tables 4.2.6.8 and 6.1.1.4'

_symmetry_cell_setting           Orthorhombic
_symmetry_space_group_name_H-M   Pna21
_symmetry_space_group_name_Hall  'P 2c -2n'
_symmetry_Int_Tables_number      33

loop_
_symmetry_equiv_pos_as_xyz
'x, y, z'
'-x, -y, z+1/2'
'x+1/2, -y+1/2, z'
'-x+1/2, y+1/2, z+1/2'

_cell_length_a                   8.3212(4)
_cell_length_b                   14.8573(5)
_cell_length_c                   8.5918(11)
_cell_angle_alpha                90.00
_cell_angle_beta                 90.00
_cell_angle_gamma                90.00
_cell_volume                     1062.21(15)
_cell_formula_units_Z            4
_cell_measurement_temperature    293(2)
_cell_measurement_reflns_used    6059
_cell_measurement_theta_min      2.74
_cell_measurement_theta_max      29.27

_exptl_crystal_description       'rectangular needle'
_exptl_crystal_colour            Yellow
_exptl_crystal_size_max          0.0270
_exptl_crystal_size_mid          0.0185
_exptl_crystal_size_min          0.0095
_exptl_crystal_density_meas      ?
_exptl_crystal_density_diffrn    3.411
_exptl_crystal_density_method    'not measured'
_exptl_crystal_F_000             944
_exptl_absorpt_coefficient_mu    11.052
_exptl_absorpt_correction_type   integration
_exptl_absorpt_correction_T_min  0.4099
_exptl_absorpt_correction_T_max  0.8071
_exptl_absorpt_process_details   X-SHAPE'

_exptl_special_details           
; 
The structure was also refined the structure as centrosymmetric (Pnma) and 
we performed the Hamilton test. We used 1004/41 reflections/parameters
and we obtained R1 = 0.251/wR = 0.0585 R-values for the
centrosymmetric case. Taking the acentric solution as the unrestricted
case, we calculate the quotient of the wR values to be R = 1.119.
This value is larger than the R66-41,1004-66,0.005 = 1.025 based on
the tables provided by Hamilton (W. C. Hamilton, Acta Cryst. (1965). 18, 502),
suggesting that the centric solution can be rejected at the 0.5%
significance level.
;

_diffrn_ambient_temperature      293(2)
_diffrn_measurement_device       '2-circle goniometer'
_diffrn_measurement_device_type  'STOE IPDS 2T'
_diffrn_detector                 'image plate (34 cm diameter)'
_diffrn_detector_type            STOE
_diffrn_detector_area_resol_mean 6.67
_diffrn_source                   
'sealed X-ray tube, 12 x 0.4 mm long-fine focus'
_diffrn_source_voltage           50
_diffrn_source_current           40
_diffrn_source_power             1.20
_diffrn_radiation_type           'Mo K\a'
_diffrn_radiation_wavelength     0.71073
_diffrn_radiation_monochromator  'plane graphite'
_diffrn_radiation_polarisn_norm  0
_diffrn_radiation_collimation    '0.5 mm diameter, monocapillary'
_diffrn_measurement_method       'rotation method'
_diffrn_measurement_details      
; 180 frames, detector distance = 100 mm
;

_diffrn_reflns_number            6810
_diffrn_reflns_av_R_equivalents  0.0426
_diffrn_reflns_av_sigmaI/netI    0.0316
_diffrn_reflns_limit_h_min       -9
_diffrn_reflns_limit_h_max       9
_diffrn_reflns_limit_k_min       -17
_diffrn_reflns_limit_k_max       16
_diffrn_reflns_limit_l_min       -10
_diffrn_reflns_limit_l_max       10
_diffrn_reflns_theta_min         2.37
_diffrn_reflns_theta_max         25.00
_reflns_number_total             1876
_reflns_number_gt                1511
_reflns_threshold_expression     >2sigma(I)

_computing_data_collection       'STOE X-AREA'
_computing_cell_refinement       'STOE X-AREA'
_computing_data_reduction        'STOE X-RED'
_computing_structure_solution    'SHELXS-97 (Sheldrick, 2008)'
_computing_structure_refinement  'SHELXL-97 (Sheldrick, 2008)'
_computing_molecular_graphics    ?
_computing_publication_material  ?

_refine_special_details          
; 
 Refinement of F^2^ against ALL reflections.  The weighted R-factor wR and 
 goodness of fit S are based on F^2^, conventional R-factors R are based 
 on F, with F set to zero for negative F^2^. The threshold expression of 
 F^2^ > 2sigma(F^2^) is used only for calculating R-factors(gt) etc. and is 
 not relevant to the choice of reflections for refinement.  R-factors based 
 on F^2^ are statistically about twice as large as those based on F, and R- 
 factors based on ALL data will be even larger. 
;

_refine_ls_structure_factor_coef Fsqd
_refine_ls_matrix_type           full
_refine_ls_weighting_scheme      calc
_refine_ls_weighting_details     
'calc w=1/[\s^2^(Fo^2^)+(0.0400P)^2^+0.0000P] where P=(Fo^2^+2Fc^2^)/3'
_atom_sites_solution_primary     direct
_atom_sites_solution_secondary   difmap
_atom_sites_solution_hydrogens   geom
_refine_ls_hydrogen_treatment    mixed
_refine_ls_extinction_method     SHELXL
_refine_ls_extinction_coef       0.0072(3)
_refine_ls_extinction_expression Fc^*^=kFc[1+0.001xFc^2^\l^3^/sin(2\q)]^-1/4^
_refine_ls_abs_structure_details 'Flack H D (1983), Acta Cryst. A39, 876-881'
_refine_ls_abs_structure_Flack   0.0(9)
_refine_ls_number_reflns         1876
_refine_ls_number_parameters     68
_refine_ls_number_restraints     1
_refine_ls_R_factor_all          0.0339
_refine_ls_R_factor_gt           0.0263
_refine_ls_wR_factor_ref         0.0637
_refine_ls_wR_factor_gt          0.0614
_refine_ls_goodness_of_fit_ref   0.947
_refine_ls_restrained_S_all      0.947
_refine_ls_shift/su_max          0.001
_refine_ls_shift/su_mean         0.000

loop_
_atom_site_label
_atom_site_type_symbol
_atom_site_fract_x
_atom_site_fract_y
_atom_site_fract_z
_atom_site_U_iso_or_equiv
_atom_site_adp_type
_atom_site_occupancy
_atom_site_symmetry_multiplicity
_atom_site_calc_flag
_atom_site_refinement_flags
_atom_site_disorder_assembly
_atom_site_disorder_group
Sn Sn 0.01415(5) 0.75104(3) -0.0186(3) 0.04379(14) Uani 1 1 d . . .
I1 I 0.2261(2) 0.67763(12) 0.23655(6) 0.0624(5) Uani 1 1 d . . .
I2 I -0.17539(6) 0.58307(3) -0.0199(4) 0.07036(19) Uani 1 1 d . . .
I3 I 0.2234(2) 0.67790(12) -0.27450(3) 0.0624(5) Uani 1 1 d . . .
N N -0.8660(11) 0.3867(9) 0.003(3) 0.148(9) Uani 1 1 d . . .
H0A H -0.967(9) 0.416(2) 0.060(6) 0.222 Uiso 1 1 calc R . .
H0B H -0.832(3) 0.326(5) 0.060(6) 0.222 Uiso 1 1 calc R . .
H0C H -0.896(3) 0.3724(16) -0.116(10) 0.222 Uiso 1 1 calc R . .
C1 C -0.758(2) 0.4375(13) 0.006(6) 0.192(16) Uani 1 1 d . . .
H1A H -0.7542 0.4547 0.1149 0.231 Uiso 1 1 calc R . .
H1B H -0.8014 0.4897 -0.0474 0.231 Uiso 1 1 calc R . .
C2 C -0.6009(15) 0.4381(10) -0.037(7) 0.147(11) Uani 1 1 d . . .
H2A H -0.561(5) 0.488(6) -0.014(7) 0.221 Uiso 1 1 calc R . .
H2B H -0.5937(18) 0.4296(13) -0.132(12) 0.221 Uiso 1 1 calc R . .
H2C H -0.552(6) 0.398(5) 0.010(9) 0.221 Uiso 1 1 calc R . .

loop_
_atom_site_aniso_label
_atom_site_aniso_U_11
_atom_site_aniso_U_22
_atom_site_aniso_U_33
_atom_site_aniso_U_23
_atom_site_aniso_U_13
_atom_site_aniso_U_12
Sn 0.0428(2) 0.0451(3) 0.0435(2) -0.0029(8) -0.0025(8) -0.00024(18)
I1 0.0685(9) 0.0713(12) 0.0472(11) 0.0070(6) -0.0105(8) -0.0055(8)
I2 0.0601(3) 0.0426(3) 0.1084(4) -0.0058(12) 0.0045(14) -0.0074(2)
I3 0.0634(8) 0.0787(12) 0.0451(10) -0.0198(6) -0.0009(7) 0.0084(7)
N 0.064(5) 0.171(13) 0.209(18) 0.142(16) 0.004(10) -0.013(7)
C1 0.115(12) 0.127(18) 0.34(4) -0.12(3) 0.00(3) -0.019(11)
C2 0.065(7) 0.144(14) 0.23(3) 0.04(3) 0.03(2) -0.015(8)

_geom_special_details            
; 
 All esds (except the esd in the dihedral angle between two l.s. planes) 
 are estimated using the full covariance matrix.  The cell esds are taken 
 into account individually in the estimation of esds in distances, angles 
 and torsion angles; correlations between esds in cell parameters are only 
 used when they are defined by crystal symmetry.  An approximate (isotropic) 
 treatment of cell esds is used for estimating esds involving l.s. planes. 
;

loop_
_geom_bond_atom_site_label_1
_geom_bond_atom_site_label_2
_geom_bond_distance
_geom_bond_site_symmetry_2
_geom_bond_publ_flag
Sn I2 2.9522(6) . ?
Sn I3 3.007(2) . ?
Sn I1 3.018(2) . ?
N C1 1.170(18) . ?
C1 C2 1.36(3) . ?

loop_
_geom_angle_atom_site_label_1
_geom_angle_atom_site_label_2
_geom_angle_atom_site_label_3
_geom_angle
_geom_angle_site_symmetry_1
_geom_angle_site_symmetry_3
_geom_angle_publ_flag
I2 Sn I3 90.07(6) . . ?
I2 Sn I1 90.54(6) . . ?
I3 Sn I1 93.559(19) . . ?
N C1 C2 137(2) . . ?

_diffrn_measured_fraction_theta_max 1.000
_diffrn_reflns_theta_full        25.00
_diffrn_measured_fraction_theta_full 1.000
_refine_diff_density_max         0.702
_refine_diff_density_min         -0.669
_refine_diff_density_rms         0.176
